LAMMPS (15 Apr 2020)
OMP_NUM_THREADS environment is not set. Defaulting to 1 thread. (../comm.cpp:94)
  using 1 OpenMP thread(s) per MPI task
# 3d Lennard-Jones melt

units 		lj # reduced
dimension	3
atom_style 	bond # angle can also be used but since angles are not defined for the polymer  bond is sufficient
read_data 	out.data
  orthogonal box = (-7.37594 -7.37594 -7.37594) to (7.37594 7.37594 7.37594)
  1 by 1 by 1 MPI processor grid
  reading atoms ...
  2010 atoms
  scanning bonds ...
  1 = max bonds/atom
  reading bonds ...
  9 bonds
  2 = max # of 1-2 neighbors
  2 = max # of 1-3 neighbors
  4 = max # of 1-4 neighbors
  6 = max # of special neighbors
  special bonds CPU = 0.0089532 secs
  read_data CPU = 0.0269143 secs
include 	  forcefield.data
# Defining the force field type, atom masses pair coeeficients and bond types and coeffcients

mass 1  1.0 # Polymer atoms
mass 2  1.0 # lj fluid atoms

pair_style lj/cut 3.5

pair_coeff 1 1 0.3 1.0 3.5
pair_coeff 1 2 0.3 1.0 3.5
pair_coeff 2 2 0.3 1.0 3.5

bond_style fene
bond_coeff 1 30.0 1.5 1.0 1.0

minimize    1.0e-4 1.0e-6 100 1000
WARNING: Using 'neigh_modify every 1 delay 0 check yes' setting during minimization (../min.cpp:190)
WARNING: Use special bonds = 0,1,1 with bond style fene (../bond_fene.cpp:188)
Neighbor list info ...
  update every 1 steps, delay 0 steps, check yes
  max neighbors/atom: 2000, page size: 100000
  master list distance cutoff = 3.8
  ghost atom cutoff = 3.8
  binsize = 1.9, bins = 8 8 8
  1 neighbor lists, perpetual/occasional/extra = 1 0 0
  (1) pair lj/cut, perpetual
      attributes: half, newton on
      pair build: half/bin/newton
      stencil: half/bin/3d/newton
      bin: standard
Per MPI rank memory allocation (min/avg/max) = 6.156 | 6.156 | 6.156 Mbytes
Step Temp E_pair E_mol TotEng Press 
       0            0 1.1880645e+09  0.090633851 1.1880645e+09 2.9754589e+09 
      98            0    -1.533932  0.090522169   -1.4434098  -0.68098936 
Loop time of 0.815628 on 1 procs for 98 steps with 2010 atoms

99.6% CPU use with 1 MPI tasks x 1 OpenMP threads

Minimization stats:
  Stopping criterion = energy tolerance
  Energy initial, next-to-last, final = 
         1188064547.65     -1.44327187545     -1.44340982877
  Force two-norm initial, final = 3.6832e+14 35.5183
  Force max component initial, final = 2.42455e+14 10.2341
  Final line search alpha, max atom move = 0.00657537 0.0672931
  Iterations, force evaluations = 98 184

MPI task timing breakdown:
Section |  min time  |  avg time  |  max time  |%varavg| %total
---------------------------------------------------------------
Pair    | 0.60039    | 0.60039    | 0.60039    |   0.0 | 73.61
Bond    | 0.0001785  | 0.0001785  | 0.0001785  |   0.0 |  0.02
Neigh   | 0.19389    | 0.19389    | 0.19389    |   0.0 | 23.77
Comm    | 0.0077748  | 0.0077748  | 0.0077748  |   0.0 |  0.95
Output  | 0          | 0          | 0          |   0.0 |  0.00
Modify  | 0          | 0          | 0          |   0.0 |  0.00
Other   |            | 0.01339    |            |       |  1.64

Nlocal:    2010 ave 2010 max 2010 min
Histogram: 1 0 0 0 0 0 0 0 0 0
Nghost:    4960 ave 4960 max 4960 min
Histogram: 1 0 0 0 0 0 0 0 0 0
Neighs:    143702 ave 143702 max 143702 min
Histogram: 1 0 0 0 0 0 0 0 0 0

Total # of neighbors = 143702
Ave neighs/atom = 71.4935
Ave special neighs/atom = 0.0238806
Neighbor list builds = 38
Dangerous builds = 0

neighbor	   0.3 bin   #skin factor is taken to 0.3
neigh_modify       every 20 delay 0 check no
timestep           0.005    #default for lj

group poly type 1
10 atoms in group poly
group fluid type 2
2000 atoms in group fluid

variable N equal 1000
variable tempext equal 0.3
variable tdamp equal 0.50
variable pext equal 1.0
variable pdamp equal 5.0
variable Nevery equal 100
variable Nfreq equal 100000
variable Nrepeat equal 100

reset_timestep 0

#Using Npt to Calculate the properties
velocity	all create ${tempext} 87287
velocity	all create 0.3 87287
dump		dumpnpt all atom 1000 npt.out.dump
compute         radgy poly gyration
fix             radav poly ave/time ${Nevery} ${Nrepeat} ${Nfreq} c_radgy file npt.radgy
fix             radav poly ave/time 100 ${Nrepeat} ${Nfreq} c_radgy file npt.radgy
fix             radav poly ave/time 100 100 ${Nfreq} c_radgy file npt.radgy
fix             radav poly ave/time 100 100 100000 c_radgy file npt.radgy
thermo		${N}
thermo		1000
thermo_style    custom step pe ke etotal press temp vol density lx ly lz
restart         50000 restart1npt.out restart2npt.out

fix 		        nptid all npt temp ${tempext} ${tempext} ${tdamp} iso ${pext} ${pext} ${pdamp}
fix 		        nptid all npt temp 0.3 ${tempext} ${tdamp} iso ${pext} ${pext} ${pdamp}
fix 		        nptid all npt temp 0.3 0.3 ${tdamp} iso ${pext} ${pext} ${pdamp}
fix 		        nptid all npt temp 0.3 0.3 0.5 iso ${pext} ${pext} ${pdamp}
fix 		        nptid all npt temp 0.3 0.3 0.5 iso 1 ${pext} ${pdamp}
fix 		        nptid all npt temp 0.3 0.3 0.5 iso 1 1 ${pdamp}
fix 		        nptid all npt temp 0.3 0.3 0.5 iso 1 1 5
run		          1000000
WARNING: Use special bonds = 0,1,1 with bond style fene (../bond_fene.cpp:188)
Per MPI rank memory allocation (min/avg/max) = 5.608 | 5.608 | 5.608 Mbytes
Step PotEng KinEng TotEng Press Temp Volume Density Lx Ly Lz 
       0   -1.4434098   0.44977612  -0.99363371  -0.49324853          0.3    3210.2767   0.62611425    14.751884    14.751884    14.751884 
    1000   -1.6431006   0.45134819   -1.1917524   0.94386565   0.30104857    2279.5398   0.88175691    13.160803    13.160803    13.160803 
    2000   -1.6649446   0.44633298   -1.2186116    1.0194754   0.29770343    2245.9306   0.89495196    13.095802    13.095802    13.095802 
    3000    -1.674093   0.44897134   -1.2251217    1.0377722   0.29946321    2239.6303   0.89746954    13.083545    13.083545    13.083545 
    4000   -1.6553551   0.45079719   -1.2045579   0.94375456   0.30068105    2264.1475   0.88775136    13.131114    13.131114    13.131114 
    5000   -1.6536814   0.45365396   -1.2000275   0.99151654   0.30258652    2258.2315   0.89007703    13.119667    13.119667    13.119667 
    6000   -1.6646555   0.45379169   -1.2108638    1.0635259   0.30267838    2241.0857   0.89688671    13.086379    13.086379    13.086379 
    7000   -1.6753189   0.44144969   -1.2338692   0.89993788   0.29444628     2255.745   0.89105817     13.11485     13.11485     13.11485 
    8000   -1.6672199   0.45485832   -1.2123615    1.0674001   0.30338982    2239.5309   0.89750938    13.083352    13.083352    13.083352 
    9000   -1.6660361    0.4629153   -1.2031208   0.93473617   0.30876382    2261.7447   0.88869446    13.126467    13.126467    13.126467 
   10000   -1.6684668   0.45457469   -1.2138921    1.0084803   0.30320064    2247.6565   0.89426477    13.099156    13.099156    13.099156 
   11000   -1.6585477   0.44553265   -1.2130151    1.0790288   0.29716961    2240.3672   0.89717437     13.08498     13.08498     13.08498 
   12000   -1.6707373   0.45854464   -1.2121926   0.97819311   0.30584859    2248.0759   0.89409794    13.099971    13.099971    13.099971 
   13000   -1.6693899   0.43480622   -1.2345836   0.95332793    0.2900151    2250.3529   0.89319325    13.104392    13.104392    13.104392 
   14000   -1.6619226   0.46192565   -1.1999969    1.0635168   0.30810372    2241.5874     0.896686    13.087355    13.087355    13.087355 
   15000   -1.6583876   0.44972691   -1.2086607   0.98224706   0.29996718    2258.4245   0.89000096    13.120041    13.120041    13.120041 
   16000   -1.6491106   0.43688455   -1.2122261    1.0116664   0.29140134    2260.4285   0.88921195     13.12392     13.12392     13.12392 
   17000   -1.6592215    0.4635484   -1.1956731    1.0436854   0.30918609    2250.3154   0.89320811    13.104319    13.104319    13.104319 
   18000   -1.6769301   0.44627347   -1.2306566    1.1085745   0.29766374     2221.233   0.90490283    13.047622    13.047622    13.047622 
   19000   -1.6720398   0.45584293   -1.2161968   0.99127109   0.30404656    2246.7063   0.89464298     13.09731     13.09731     13.09731 
   20000   -1.6797727   0.43130803   -1.2484647    1.0081845   0.28768181    2234.4132   0.89956505    13.073378    13.073378    13.073378 
   21000   -1.6726264   0.45017029   -1.2224562   0.99009521   0.30026291    2244.0129   0.89571678    13.092074    13.092074    13.092074 
   22000   -1.6819388   0.43923109   -1.2427077        1.023   0.29296648    2232.5953   0.90029753    13.069832    13.069832    13.069832 
   23000    -1.667656   0.45659141   -1.2110646   0.96868549   0.30454579    2252.2704    0.8924328    13.108113    13.108113    13.108113 
   24000   -1.6629859   0.45500916   -1.2079767    1.0088343   0.30349043    2248.6127   0.89388448    13.101013    13.101013    13.101013 
   25000   -1.6597004   0.44429915   -1.2154013   0.95219439   0.29634687    2262.0951    0.8885568    13.127145    13.127145    13.127145 
   26000   -1.6633671   0.45016946   -1.2131976     1.073097   0.30026236    2239.2689   0.89761438    13.082842    13.082842    13.082842 
   27000   -1.6632451   0.44823677   -1.2150084   0.99420037   0.29897326    2251.6534   0.89267735    13.106916    13.106916    13.106916 
   28000   -1.6877284     0.442888   -1.2448404   0.98400088   0.29540564     2234.858   0.89938601    13.074246    13.074246    13.074246 
   29000   -1.6642095   0.45243601   -1.2117735   0.98299173   0.30177415    2253.7982   0.89182783    13.111076    13.111076    13.111076 
   30000   -1.6579442   0.45912154   -1.1988227    1.0008588   0.30623338    2255.2062   0.89127104    13.113806    13.113806    13.113806 
   31000   -1.6652639   0.45446211   -1.2108018    1.0620836   0.30312555    2239.2727   0.89761289    13.082849    13.082849    13.082849 
   32000    -1.664496   0.44721097    -1.217285   0.98388074   0.29828905    2252.0095   0.89253619    13.107607    13.107607    13.107607 
   33000   -1.6618517   0.44647234   -1.2153793   0.97211173   0.29779638    2255.8149   0.89103053    13.114986    13.114986    13.114986 
   34000   -1.6698502   0.45600868   -1.2138415   0.99472941   0.30415711    2245.0507   0.89530272    13.094092    13.094092    13.094092 
   35000   -1.6789354   0.43534406   -1.2435913   0.88767912   0.29037384    2251.6253   0.89268849    13.106861    13.106861    13.106861 
   36000    -1.669801   0.46077181   -1.2090292    1.0186607   0.30733411    2242.0709   0.89649263    13.088296    13.088296    13.088296 
   37000     -1.67182   0.45268682   -1.2191332   0.92067367   0.30194143    2254.9671   0.89136557    13.113342    13.113342    13.113342 
   38000   -1.6672579   0.44639784     -1.22086   0.98938195   0.29774669    2248.7126   0.89384479    13.101207    13.101207    13.101207 
   39000   -1.6576657   0.45488834   -1.2027774    1.0117553   0.30340984    2252.6913   0.89226607    13.108929    13.108929    13.108929 
   40000   -1.6705395   0.44264229   -1.2278972   0.97468112   0.29524174    2249.7386   0.89343712      13.1032      13.1032      13.1032 
   41000   -1.6679988   0.44385954   -1.2241392   0.99776057   0.29605365    2246.9408    0.8945496    13.097766    13.097766    13.097766 
   42000   -1.6637333   0.46561759   -1.1981157   0.95960083   0.31056624     2256.079   0.89092626    13.115497    13.115497    13.115497 
   43000    -1.664845   0.46777139   -1.1970736    1.0822328   0.31200282     2238.883    0.8977691     13.08209     13.08209     13.08209 
   44000   -1.6838465   0.45166406   -1.2321825   0.93583019   0.30125926    2243.8004   0.89580162    13.091661    13.091661    13.091661 
   45000   -1.6692221   0.45007996   -1.2191422    1.0415762   0.30020266      2238.63   0.89787058    13.081597    13.081597    13.081597 
   46000    -1.673155   0.44965392    -1.223501   0.90954819   0.29991849     2255.476   0.89116444    13.114329    13.114329    13.114329 
   47000   -1.6714303   0.45378714   -1.2176432    1.0204793   0.30267535    2243.9004    0.8957617    13.091855    13.091855    13.091855 
   48000   -1.6664278   0.45405751   -1.2123703   0.99392481   0.30285568    2247.2924   0.89440966    13.098449    13.098449    13.098449 
   49000   -1.6684508   0.44599016   -1.2224607    1.0164205   0.29747477    2243.6666   0.89585504      13.0914      13.0914      13.0914 
   50000    -1.672004   0.45602252   -1.2159814   0.94900671   0.30416634    2255.0902   0.89131692    13.113581    13.113581    13.113581 
   51000   -1.6635026   0.46674492   -1.1967576    1.0735261   0.31131816    2240.0343   0.89730771    13.084332    13.084332    13.084332 
   52000   -1.6712381   0.44674673   -1.2244914   0.93045595    0.2979794    2257.6951    0.8902885    13.118628    13.118628    13.118628 
   53000   -1.6674255   0.44284746    -1.224578    1.0125213    0.2953786    2242.8924   0.89616427    13.089894    13.089894    13.089894 
   54000   -1.6887533   0.45500548   -1.2337478    1.0354197   0.30348798    2223.4292   0.90400901    13.051921    13.051921    13.051921 
   55000   -1.6725804   0.44894271   -1.2236377    1.0180286   0.29944412    2239.4271   0.89755097     13.08315     13.08315     13.08315 
   56000   -1.6797457   0.44351112   -1.2362346   0.97654567   0.29582125    2238.9338   0.89774874    13.082189    13.082189    13.082189 
   57000   -1.6646692   0.45576155   -1.2089077   0.98622286   0.30399227    2252.4679   0.89235456    13.108496    13.108496    13.108496 
   58000    -1.653979   0.46636993   -1.1876091      1.02374   0.31106805    2255.5599   0.89113129    13.114491    13.114491    13.114491 
   59000   -1.6721727   0.44671733   -1.2254554   0.94089084   0.29795979    2252.1386   0.89248505    13.107857    13.107857    13.107857 
   60000    -1.665833   0.45843301      -1.2074    1.0749703   0.30577413    2237.2514   0.89842384    13.078911    13.078911    13.078911 
   61000   -1.6768052   0.44874732   -1.2280579   0.96499774   0.29931379    2245.0345    0.8953092     13.09406     13.09406     13.09406 
   62000   -1.6577496     0.438033   -1.2197166      1.06933   0.29216736    2242.7206   0.89623291     13.08956     13.08956     13.08956 
   63000   -1.6679893   0.44713434   -1.2208549    1.0222538   0.29823794    2241.3829   0.89676779    13.086957    13.086957    13.086957 
   64000   -1.6801729   0.45586125   -1.2243116    1.0044577   0.30405877    2237.5892   0.89828823    13.079569    13.079569    13.079569 
   65000   -1.6764798   0.45627537   -1.2202045   0.97622066   0.30433499    2246.6193   0.89467761    13.097141    13.097141    13.097141 
   66000   -1.6718831   0.45659747   -1.2152856   0.97319137   0.30454983    2248.8369   0.89379538    13.101449    13.101449    13.101449 
   67000   -1.6704973   0.45861512   -1.2118822   0.96184717    0.3058956    2251.7197   0.89265107    13.107045    13.107045    13.107045 
   68000   -1.6676898   0.44822288    -1.219467    0.9451533   0.29896399    2256.4087   0.89079605    13.116136    13.116136    13.116136 
   69000   -1.6660908   0.45082526   -1.2152655    1.1015406   0.30069977    2231.8779   0.90058689    13.068432    13.068432    13.068432 
   70000   -1.6739905   0.43331694   -1.2406735   0.92682115   0.28902175     2253.195   0.89206661    13.109906    13.109906    13.109906 
   71000   -1.6539403   0.45053617   -1.2034041    1.0252591   0.30050696    2253.3368   0.89201048    13.110181    13.110181    13.110181 
   72000   -1.6679509   0.44166698   -1.2262839    1.0237411   0.29459122    2244.7995   0.89540293    13.093603    13.093603    13.093603 
   73000   -1.6748981   0.43743074   -1.2374673   0.97246291   0.29176565    2244.4781   0.89553112    13.092979    13.092979    13.092979 
   74000   -1.6795971   0.45481255   -1.2247845    1.0362964   0.30335929     2231.818   0.90061106    13.068315    13.068315    13.068315 
   75000    -1.670007   0.44131314   -1.2286938    1.0340372   0.29435521    2238.8032   0.89780109    13.081935    13.081935    13.081935 
   76000   -1.6578566   0.44280671   -1.2150499    1.0873016   0.29535142    2241.9095   0.89655717    13.087982    13.087982    13.087982 
   77000   -1.6760575   0.45494753     -1.22111   0.91523988   0.30344932    2255.1717   0.89128467    13.113739    13.113739    13.113739 
   78000   -1.6661892   0.46241989   -1.2037693     1.057052   0.30843337    2242.2428   0.89642389    13.088631    13.088631    13.088631 
   79000   -1.6702177    0.4501919   -1.2200258   0.92911169   0.30027733    2255.5969   0.89111668    13.114563    13.114563    13.114563 
   80000   -1.6593861   0.46287811    -1.196508   0.98324804   0.30873901    2261.3386   0.88885406    13.125682    13.125682    13.125682 
   81000   -1.6574431   0.45018695   -1.2072562   0.90149145   0.30027402    2273.9474   0.88392545    13.150032    13.150032    13.150032 
   82000   -1.6774696   0.43436301   -1.2431066   0.94389829   0.28971948    2246.9878   0.89453089    13.097857    13.097857    13.097857 
   83000   -1.6620579    0.4424401   -1.2196178    1.0928385   0.29510689    2237.5353   0.89830986    13.079465    13.079465    13.079465 
   84000    -1.672961   0.43947034   -1.2334906   0.98133556   0.29312606    2245.1544   0.89526138    13.094293    13.094293    13.094293 
   85000   -1.6534325   0.45108814   -1.2023444   0.99333987   0.30087512    2260.3716   0.88923431     13.12381     13.12381     13.12381 
   86000   -1.6772402   0.44809208   -1.2291482   0.91683261   0.29887675    2251.5138   0.89273269    13.106645    13.106645    13.106645 
   87000   -1.6697841   0.44805232   -1.2217318   0.91243962   0.29885023     2260.403   0.88922198    13.123871    13.123871    13.123871 
   88000   -1.6637586   0.46362765    -1.200131    1.0216591   0.30923895    2247.5037   0.89432558    13.098859    13.098859    13.098859 
   89000   -1.6845726   0.44251172   -1.2420609   0.98875607   0.29515465    2233.4502   0.89995292      13.0715      13.0715      13.0715 
   90000   -1.6766075   0.43602078   -1.2405868   0.99973107   0.29082521    2235.3685   0.89918061    13.075241    13.075241    13.075241 
   91000   -1.6583258   0.44586663   -1.2124591   0.99089927   0.29739237    2256.5612   0.89073587    13.116432    13.116432    13.116432 
   92000   -1.6482136   0.44898861    -1.199225    1.1906418   0.29947473     2234.136   0.89967667    13.072838    13.072838    13.072838 
   93000    -1.675529   0.43020685   -1.2453221    1.0228225   0.28694732    2233.3431   0.89999608    13.071291    13.071291    13.071291 
   94000   -1.6699409   0.44573073   -1.2242102    1.0790348   0.29730173    2233.3538   0.89999175    13.071312    13.071312    13.071312 
   95000    -1.664468   0.43884379   -1.2256242   0.96941425   0.29270816    2253.0624   0.89211909    13.109649    13.109649    13.109649 
   96000   -1.6743308   0.44686432   -1.2274665   0.99769859   0.29805783    2240.5667   0.89709445    13.085369    13.085369    13.085369 
   97000   -1.6613643   0.45212463   -1.2092397    1.0601339   0.30156646      2240.68   0.89704912    13.085589    13.085589    13.085589 
   98000   -1.6727421   0.43651685   -1.2362252   0.92015039   0.29115609    2254.2681   0.89164196    13.111987    13.111987    13.111987 
   99000    -1.665863   0.44941899    -1.216444    1.0008074    0.2997618    2248.6835   0.89385632    13.101151    13.101151    13.101151 
  100000   -1.6642333   0.43184916   -1.2323841    1.1213342   0.28804274     2228.381   0.90200015    13.061603    13.061603    13.061603 
  101000   -1.6605916   0.44578605   -1.2148056    1.0137511   0.29733863    2250.0838   0.89330007     13.10387     13.10387     13.10387 
  102000   -1.6671017   0.44778977   -1.2193119      1.04477   0.29867511    2238.6857   0.89784823    13.081706    13.081706    13.081706 
  103000   -1.6582783   0.44195571   -1.2163226    1.0323467    0.2947838     2249.844   0.89339527    13.103404    13.103404    13.103404 
  104000   -1.6746449   0.44978037   -1.2248645   0.98935416   0.30000283    2240.3663    0.8971747    13.084978    13.084978    13.084978 
  105000   -1.6858984   0.45371524   -1.2321832   0.97439425   0.30262739    2238.6126   0.89787756    13.081563    13.081563    13.081563 
  106000   -1.6783489   0.44572454   -1.2326244    1.0546834    0.2972976    2230.0394   0.90132935    13.064843    13.064843    13.064843 
  107000   -1.6696226   0.45026224   -1.2193604    1.0634105   0.30032424    2236.3525   0.89878498    13.077159    13.077159    13.077159 
  108000   -1.6826438   0.44049798   -1.2421458    1.0431731   0.29381149    2229.5663   0.90152063    13.063919    13.063919    13.063919 
  109000   -1.6632719   0.45087491    -1.212397   0.98943092   0.30073289    2253.3377    0.8920101    13.110183    13.110183    13.110183 
  110000   -1.6719654   0.45478023   -1.2171852    1.0425849   0.30333773    2239.3457   0.89758361    13.082991    13.082991    13.082991 
  111000   -1.6664347   0.43879283   -1.2276419    1.0060441   0.29267416    2247.4952   0.89432893    13.098843    13.098843    13.098843 
  112000   -1.6537051   0.45045277   -1.2032524    1.0196535   0.30045133    2255.5406   0.89113892    13.114454    13.114454    13.114454 
  113000   -1.6671501   0.46689695   -1.2002532   0.93995819   0.31141957    2257.8834   0.89021425    13.118993    13.118993    13.118993 
  114000   -1.6707127   0.45909865   -1.2116141   0.90644798   0.30621812     2257.787   0.89025227    13.118806    13.118806    13.118806 
  115000   -1.6665737   0.45603102   -1.2105427   0.99030321   0.30417201     2250.577   0.89310429    13.104827    13.104827    13.104827 
  116000   -1.6595192   0.44383774   -1.2156815    1.0202185   0.29603911    2250.0323   0.89332052     13.10377     13.10377     13.10377 
  117000   -1.6686921   0.44771269   -1.2209794    1.0303824   0.29862369    2238.3953    0.8979647     13.08114     13.08114     13.08114 
  118000   -1.6680922   0.43163086   -1.2364614   0.93597721   0.28789714    2253.7723   0.89183811    13.111026    13.111026    13.111026 
  119000   -1.6538796   0.44866855   -1.2052111     1.128551   0.29926126    2239.7474   0.89742261    13.083773    13.083773    13.083773 
  120000    -1.667675   0.45157253   -1.2161025    1.0030928   0.30119821    2248.2468   0.89402996    13.100303    13.100303    13.100303 
  121000   -1.6671164   0.43826902   -1.2288474    1.0628655   0.29232478    2235.0254   0.89931865    13.074572    13.074572    13.074572 
  122000   -1.6518405   0.43641452    -1.215426    1.0242167   0.29108783    2256.3223   0.89083018    13.115969    13.115969    13.115969 
  123000   -1.6617974   0.46194925   -1.1998482   0.98415355   0.30811946    2255.0032   0.89135129    13.113412    13.113412    13.113412 
  124000   -1.6770705    0.4391292   -1.2379413   0.94697839   0.29289852    2245.5301   0.89511157    13.095024    13.095024    13.095024 
  125000   -1.6628684   0.45894694   -1.2039215    1.0418335   0.30611692    2246.2313   0.89483215    13.096387    13.096387    13.096387 
  126000   -1.6794286   0.44244175   -1.2369868   0.98632206   0.29510799    2238.8392   0.89778668    13.082005    13.082005    13.082005 
  127000   -1.6753163   0.44927702   -1.2260393   0.96344806    0.2996671    2246.1297   0.89487263    13.096189    13.096189    13.096189 
  128000   -1.6684916   0.44281132   -1.2256802    1.0174111   0.29535449    2243.0598   0.89609736     13.09022     13.09022     13.09022 
  129000   -1.6608635   0.45355371   -1.2073098    1.0721247   0.30251965    2245.3215   0.89519474    13.094618    13.094618    13.094618 
  130000    -1.682234   0.45302638   -1.2292076    1.0052259   0.30216792    2238.1026   0.89808214     13.08057     13.08057     13.08057 
  131000    -1.670835   0.45269404    -1.218141   0.84849835   0.30194625    2269.6655   0.88559307    13.141773    13.141773    13.141773 
  132000   -1.6654025   0.45399486   -1.2114076      1.06693   0.30281389    2237.5904   0.89828774    13.079572    13.079572    13.079572 
  133000   -1.6692667   0.46377222   -1.2054945   0.87449585   0.30933538    2266.0353   0.88701178    13.134762    13.134762    13.134762 
  134000   -1.6724387   0.46348746   -1.2089513   0.96616098   0.30914545    2247.0398   0.89451019    13.097958    13.097958    13.097958 
  135000   -1.6778263   0.45624182   -1.2215844   0.99494378   0.30431262    2240.0997   0.89728149    13.084459    13.084459    13.084459 
  136000   -1.6660002   0.43855455   -1.2274457   0.89080978   0.29251523    2264.5605   0.88758944    13.131912    13.131912    13.131912 
  137000   -1.6779334   0.44956488   -1.2283685    1.0431014    0.2998591    2233.1066   0.90009137     13.07083     13.07083     13.07083 
  138000   -1.6674064   0.46341794   -1.2039884   0.98413045   0.30909907    2249.4145   0.89356586     13.10257     13.10257     13.10257 
  139000   -1.6661055    0.4499902   -1.2161153   0.94991752   0.30014279    2256.1326   0.89090507    13.115601    13.115601    13.115601 
  140000   -1.6604606   0.45672164    -1.203739    1.0540196   0.30463265    2243.1675   0.89605434     13.09043     13.09043     13.09043 
  141000   -1.6608553   0.44672733    -1.214128    1.0515789   0.29796646    2243.8101   0.89579773     13.09168     13.09168     13.09168 
  142000    -1.673722   0.44005454   -1.2336675   0.96202126   0.29351572    2250.0203   0.89332528    13.103746    13.103746    13.103746 
  143000   -1.6611753   0.46453308   -1.1966422    1.0484155   0.30984287    2245.3703   0.89517529    13.094713    13.094713    13.094713 
  144000   -1.6641687   0.45396012   -1.2102086   0.96174467   0.30279072    2259.1854   0.88970122    13.121514    13.121514    13.121514 
  145000    -1.670483   0.46308745   -1.2073956   0.92310694   0.30887864    2255.9261   0.89098663    13.115201    13.115201    13.115201 
  146000    -1.666516   0.47587322   -1.1906428    1.0369928   0.31740673    2243.3093   0.89599773    13.090705    13.090705    13.090705 
  147000   -1.6774678    0.4357965   -1.2416713   0.92162415   0.29067562      2249.98   0.89334129    13.103668    13.103668    13.103668 
  148000   -1.6539595     0.462382   -1.1915775   0.98926117    0.3084081    2256.8961   0.89060369    13.117081    13.117081    13.117081 
  149000   -1.6609675   0.45843836   -1.2025291   0.96749579    0.3057777    2253.7411   0.89185045    13.110965    13.110965    13.110965 
  150000   -1.6673702   0.44348933   -1.2238809   0.99997394   0.29580672    2248.8407   0.89379385    13.101456    13.101456    13.101456 
  151000   -1.6752075   0.46118819   -1.2140193    1.0466209   0.30761183    2237.1937   0.89844701    13.078799    13.078799    13.078799 
  152000   -1.6665566   0.43882811   -1.2277285    1.0052583   0.29269769    2245.6745   0.89505403    13.095305    13.095305    13.095305 
  153000   -1.6683074   0.44909544    -1.219212   0.92458304   0.29954599     2255.994   0.89095981    13.115333    13.115333    13.115333 
  154000   -1.6646748   0.43600022   -1.2286746    1.0202685    0.2908115    2246.9022   0.89456499     13.09769     13.09769     13.09769 
  155000   -1.6492279   0.45343566   -1.1957923   0.95566286   0.30244091    2269.8494    0.8855213    13.142128    13.142128    13.142128 
  156000   -1.6553783   0.44463063   -1.2107477    1.1055316   0.29656797    2238.0695   0.89809542    13.080505    13.080505    13.080505 
  157000   -1.6594992   0.44809864   -1.2114006   0.99654556   0.29888112    2252.3667   0.89239465      13.1083      13.1083      13.1083 
  158000   -1.6503159   0.44264961   -1.2076663     1.041974   0.29524663    2254.1478   0.89168955    13.111754    13.111754    13.111754 
  159000   -1.6750063   0.45113374   -1.2238726    1.0253381   0.30090553    2236.1713   0.89885778    13.076806    13.076806    13.076806 
  160000    -1.668696   0.45071325   -1.2179827   0.97713676   0.30062507    2251.6186   0.89269116    13.106848    13.106848    13.106848 
  161000   -1.6731616   0.46336047   -1.2098011   0.96979717   0.30906074    2248.8036   0.89380862    13.101384    13.101384    13.101384 
  162000   -1.6541739   0.45635638   -1.1978175     1.048437   0.30438902     2250.829   0.89300433    13.105316    13.105316    13.105316 
  163000   -1.6743477   0.43965313   -1.2346946   0.99405658   0.29324798    2241.8873   0.89656603    13.087939    13.087939    13.087939 
  164000   -1.6618013   0.45701263   -1.2047886    1.0800615   0.30482674    2236.2354   0.89883201    13.076931    13.076931    13.076931 
  165000   -1.6671848   0.43230218   -1.2348826   0.98560559   0.28834491    2249.0965   0.89369218    13.101953    13.101953    13.101953 
  166000    -1.658547   0.45071786   -1.2078291    1.0308828   0.30062814     2252.288   0.89242584    13.108147    13.108147    13.108147 
  167000   -1.6577659   0.43772207   -1.2200439   0.99300199   0.29195997    2254.7478   0.89145223    13.112917    13.112917    13.112917 
  168000   -1.6641274   0.44376633   -1.2203611    1.0321234   0.29599148     2244.353   0.89558104    13.092735    13.092735    13.092735 
  169000   -1.6668879   0.44104594   -1.2258419    1.0217382   0.29417698    2244.7528   0.89542156    13.093513    13.093513    13.093513 
  170000   -1.6653541   0.46116189   -1.2041922    1.0363738   0.30759429    2243.6563   0.89585914     13.09138     13.09138     13.09138 
  171000   -1.6750815   0.44553315   -1.2295484   0.90749685   0.29716995    2254.5152   0.89154421    13.112466    13.112466    13.112466 
  172000   -1.6746392    0.4646764   -1.2099628   0.99819755   0.30993847    2242.9378   0.89614613    13.089983    13.089983    13.089983 
  173000   -1.6635861   0.45055863   -1.2130274   0.97818197   0.30052193    2255.0809   0.89132056    13.113563    13.113563    13.113563 
  174000   -1.6682485    0.4531607   -1.2150878    1.0613882   0.30225751    2235.5035    0.8991263    13.075504    13.075504    13.075504 
  175000   -1.6681934   0.44693988   -1.2212535   0.88198516   0.29810824     2266.311   0.88690388    13.135295    13.135295    13.135295 
  176000   -1.6627322    0.4661235   -1.1966087    1.0187197   0.31090368    2251.8365   0.89260479    13.107271    13.107271    13.107271 
  177000   -1.6783103   0.45689526    -1.221415    1.0062716   0.30474845     2239.777   0.89741077    13.083831    13.083831    13.083831 
  178000   -1.6717844   0.44919227   -1.2225921    0.9153094   0.29961058    2256.3744    0.8908096     13.11607     13.11607     13.11607 
  179000   -1.6739763    0.4399825   -1.2339938    1.0025132   0.29346767    2239.5243   0.89751202    13.083339    13.083339    13.083339 
  180000   -1.6560884   0.46668128   -1.1894071    1.0338509   0.31127571    2252.8355   0.89220897    13.109209    13.109209    13.109209 
  181000   -1.6536669   0.43564737   -1.2180195    1.0050037   0.29057615    2255.3958   0.89119612    13.114173    13.114173    13.114173 
  182000   -1.6622176   0.46397041   -1.1982472    1.0365054   0.30946757    2247.2835   0.89441318    13.098431    13.098431    13.098431 
  183000    -1.678036   0.46292868   -1.2151074   0.91864901   0.30877274    2250.8281   0.89300465    13.105314    13.105314    13.105314 
  184000   -1.6736536   0.45121406   -1.2224395   0.96992874    0.3009591     2244.815   0.89539673    13.093634    13.093634    13.093634 
  185000   -1.6607225    0.4418794   -1.2188431   0.97030625    0.2947329    2256.4692    0.8907722    13.116253    13.116253    13.116253 
  186000   -1.6570075   0.45206488   -1.2049426    1.0440325    0.3015266    2247.8583   0.89418447    13.099548    13.099548    13.099548 
  187000   -1.6705989   0.45342742   -1.2171715     1.031138   0.30243541    2237.0805   0.89849248    13.078578    13.078578    13.078578 
  188000   -1.6756096   0.44953293   -1.2260766   0.88778475   0.29983779    2257.8997   0.89020785    13.119025    13.119025    13.119025 
  189000    -1.677108   0.45298567   -1.2241224    1.0047621   0.30214076    2238.9801   0.89773018    13.082279    13.082279    13.082279 
  190000   -1.6575707   0.45301364   -1.2045571   0.96547762   0.30215942    2259.9237   0.88941056    13.122943    13.122943    13.122943 
  191000   -1.6790435   0.46642498   -1.2126186   0.98586417   0.31110476    2242.1384   0.89646561    13.088428    13.088428    13.088428 
  192000   -1.6710847   0.44390604   -1.2271786   0.98681684   0.29608466    2245.8021   0.89500317    13.095553    13.095553    13.095553 
  193000    -1.658225   0.45595676   -1.2022683   0.96702333   0.30412248    2260.8117   0.88906122    13.124662    13.124662    13.124662 
  194000   -1.6477501   0.46736176   -1.1803884   0.94393549    0.3117296     2273.619   0.88405313    13.149399    13.149399    13.149399 
  195000   -1.6664776   0.45545663   -1.2110209    1.0727796    0.3037889    2235.0126    0.8993238    13.074547    13.074547    13.074547 
  196000   -1.6669699   0.44955333   -1.2174166   0.92301742    0.2998514    2256.7522    0.8906605    13.116802    13.116802    13.116802 
  197000   -1.6577849   0.44280981   -1.2149751     1.099635   0.29535348    2239.5531   0.89750047    13.083395    13.083395    13.083395 
  198000   -1.6582993   0.45273466   -1.2055646    1.0743698   0.30197334    2243.5174   0.89591462     13.09111     13.09111     13.09111 
  199000   -1.6760948   0.44502304   -1.2310718   0.93384394    0.2968297    2249.6129   0.89348706    13.102955    13.102955    13.102955 
  200000   -1.6715983   0.45190677   -1.2196915   0.93554662   0.30142114    2252.7108   0.89225835    13.108967    13.108967    13.108967 
  201000   -1.6872731   0.45363975   -1.2336334   0.98606867   0.30257704    2233.0111   0.90012988    13.070643    13.070643    13.070643 
  202000   -1.6763523   0.44847681   -1.2278755   0.99093426   0.29913336    2244.3408    0.8955859    13.092712    13.092712    13.092712 
  203000   -1.6727386   0.46772894   -1.2050097    1.0514323    0.3119745    2235.3769   0.89917722    13.075258    13.075258    13.075258 
  204000   -1.6645977   0.44481455   -1.2197831   0.95493641   0.29669064    2253.9471   0.89176894    13.111365    13.111365    13.111365 
  205000   -1.6769894   0.45202394   -1.2249654   0.99117775   0.30149929      2242.71   0.89623715     13.08954     13.08954     13.08954 
  206000   -1.6699538   0.45606743   -1.2138864    1.1011114   0.30419629     2230.099   0.90130529    13.064959    13.064959    13.064959 
  207000   -1.6656237   0.43733462   -1.2282891   0.95398774   0.29170154    2255.8186   0.89102911    13.114993    13.114993    13.114993 
  208000   -1.6718848   0.45292417   -1.2189607    1.1019371   0.30209974    2229.8183   0.90141874    13.064411    13.064411    13.064411 
  209000   -1.6726576   0.45282959    -1.219828   0.92683733   0.30203666    2255.5138   0.89114951    13.114402    13.114402    13.114402 
  210000   -1.6702727   0.44624012   -1.2240326    1.0243954   0.29764149    2245.0895   0.89528727    13.094167    13.094167    13.094167 
  211000   -1.6803457   0.43449656   -1.2458492    0.9583287   0.28980855    2243.7404   0.89582557    13.091544    13.091544    13.091544 
  212000   -1.6694369   0.45621462   -1.2132223      1.08399   0.30429447    2234.1143    0.8996854    13.072795    13.072795    13.072795 
  213000   -1.6723181   0.44292587   -1.2293923   0.94775938   0.29543089    2249.6952   0.89345438    13.103115    13.103115    13.103115 
  214000   -1.6508754   0.45135118   -1.1995242    1.0431425   0.30105056    2250.3563    0.8931919    13.104399    13.104399    13.104399 
  215000   -1.6771583   0.44091557   -1.2362427    1.0253079   0.29409003    2233.9125   0.89976667    13.072402    13.072402    13.072402 
  216000   -1.6671672   0.44996182   -1.2172053    1.0212903   0.30012386     2242.954   0.89613964    13.090014    13.090014    13.090014 
  217000   -1.6664919   0.45428816   -1.2122037   0.98962133   0.30300952    2246.8265   0.89459509    13.097543    13.097543    13.097543 
  218000   -1.6671285    0.4434392   -1.2236893    1.0587356   0.29577329    2237.2441   0.89842679    13.078897    13.078897    13.078897 
  219000   -1.6805043   0.45216178   -1.2283425   0.98047773   0.30159123    2236.2561    0.8988237    13.076972    13.076972    13.076972 
  220000   -1.6594333   0.44857494   -1.2108583    1.0809942   0.29919882    2240.8147    0.8969952    13.085851    13.085851    13.085851 
  221000   -1.6725113   0.46094006   -1.2115713   0.89649517   0.30744633    2263.6131   0.88796094    13.130081    13.130081    13.130081 
  222000    -1.656311   0.46164887   -1.1946622   0.94346151   0.30791911    2269.2888   0.88574006    13.141046    13.141046    13.141046 
  223000   -1.6597851   0.43343093   -1.2263541    0.9688801   0.28909778    2260.2586   0.88927876    13.123592    13.123592    13.123592 
  224000   -1.6802098   0.47018395   -1.2100258    1.0577145   0.31361199    2232.4771   0.90034517    13.069601    13.069601    13.069601 
  225000    -1.671142    0.4430992   -1.2280428   0.97615146    0.2955465    2248.3769   0.89397825    13.100555    13.100555    13.100555 
  226000   -1.6665813   0.44757007   -1.2190113    1.0026658   0.29852857    2247.8127   0.89420263    13.099459    13.099459    13.099459 
  227000   -1.6606786   0.45191922   -1.2087594    1.0405444   0.30142945    2247.1856   0.89445217    13.098241    13.098241    13.098241 
  228000   -1.6664799   0.45167285    -1.214807    1.0017991   0.30126512    2246.2763   0.89481423    13.096474    13.096474    13.096474 
  229000   -1.6756835   0.45056813   -1.2251154    1.0000929   0.30052827    2240.7469   0.89702232    13.085719    13.085719    13.085719 
  230000   -1.6681552   0.44516305   -1.2229922   0.87983604   0.29692309    2262.3653   0.88845067    13.127668    13.127668    13.127668 
  231000   -1.6720069   0.45833485    -1.213672    1.0542045   0.30570866    2233.5989   0.89989301     13.07179     13.07179     13.07179 
  232000   -1.6577119    0.4411168   -1.2165951   0.97988259   0.29422425    2258.4291   0.88999916     13.12005     13.12005     13.12005 
  233000   -1.6710088   0.44229075   -1.2287181   0.95107091   0.29500727    2248.1662   0.89406202    13.100146    13.100146    13.100146 
  234000   -1.6752959   0.44038684    -1.234909   0.96300145   0.29373737    2244.5439   0.89550487    13.093107    13.093107    13.093107 
  235000   -1.6708838    0.4473787   -1.2235051    1.0393554   0.29840092     2237.772   0.89821483    13.079926    13.079926    13.079926 
  236000     -1.68118   0.44681483   -1.2343652   0.98262051   0.29802482     2238.383   0.89796964    13.081116    13.081116    13.081116 
  237000   -1.6655959   0.44058654   -1.2250094     1.047973   0.29387056    2239.6714   0.89745308    13.083625    13.083625    13.083625 
  238000   -1.6687474   0.44368374   -1.2250636    1.0248174   0.29593639    2241.6406   0.89666471    13.087459    13.087459    13.087459 
  239000   -1.6617175    0.4585978   -1.2031197    1.0339175   0.30588405    2243.6125   0.89587661    13.091295    13.091295    13.091295 
  240000    -1.673713   0.43703673   -1.2366762    1.0520438   0.29150285    2230.8989   0.90098211    13.066521    13.066521    13.066521 
  241000   -1.6656114    0.4508894    -1.214722    0.9688487   0.30074255    2250.7862   0.89302129    13.105233    13.105233    13.105233 
  242000   -1.6771927   0.44410596   -1.2330867    1.0051012   0.29621801     2235.674   0.89905773    13.075837    13.075837    13.075837 
  243000   -1.6667036   0.47285513   -1.1938485   0.98819124   0.31539367    2251.5261   0.89272782    13.106669    13.106669    13.106669 
  244000   -1.6733977   0.44751227   -1.2258854   0.95270089   0.29849002    2251.1796   0.89286524    13.105997    13.105997    13.105997 
  245000   -1.6730897   0.44760008   -1.2254896   0.96253141   0.29854858    2249.9491   0.89335354    13.103608    13.103608    13.103608 
  246000    -1.659835   0.44543464   -1.2144004    1.0915376   0.29710424    2238.9591   0.89773862    13.082238    13.082238    13.082238 
  247000   -1.6692805   0.44851875   -1.2207617    1.0616434   0.29916133    2235.0991   0.89928897    13.074716    13.074716    13.074716 
  248000   -1.6697362   0.45507091   -1.2146653    1.0233946   0.30353161    2241.4656    0.8967347    13.087118    13.087118    13.087118 
  249000   -1.6652354   0.46186932   -1.2033661    1.0452389   0.30806615    2243.9594   0.89573814     13.09197     13.09197     13.09197 
  250000   -1.6694617   0.44442895   -1.2250328     1.030569   0.29643345    2239.2287   0.89763052    13.082763    13.082763    13.082763 
  251000   -1.6699981    0.4509112   -1.2190869     1.019816    0.3007571    2245.0903   0.89528692    13.094169    13.094169    13.094169 
  252000    -1.662923   0.43215635   -1.2307666    1.0427922   0.28824764    2243.6206   0.89587339    13.091311    13.091311    13.091311 
  253000   -1.6749511   0.44803641   -1.2269147   0.93368514   0.29883962    2251.1926   0.89286006    13.106022    13.106022    13.106022 
  254000   -1.6758784   0.44989974   -1.2259786    1.0200583   0.30008245    2238.5825   0.89788963    13.081505    13.081505    13.081505 
  255000   -1.6568881   0.46134585   -1.1955423   0.98458044   0.30771699    2257.8576   0.89022443    13.118943    13.118943    13.118943 
  256000   -1.6642122   0.45385101   -1.2103611   0.97853071   0.30271795    2254.7064   0.89146863    13.112837    13.112837    13.112837 
  257000   -1.6529558   0.45841395   -1.1945418    1.0297876   0.30576142    2255.8735   0.89100743    13.115099    13.115099    13.115099 
  258000   -1.6605141   0.45330919   -1.2072049   0.96061256   0.30235655    2256.3508   0.89081895    13.116024    13.116024    13.116024 
  259000   -1.6761221   0.45810009   -1.2180221    1.0188934   0.30555208    2236.7518   0.89862453    13.077938    13.077938    13.077938 
  260000   -1.6610506   0.43821926   -1.2228313   0.95316963   0.29229159    2259.6394   0.88952246    13.122393    13.122393    13.122393 
  261000   -1.6563138   0.45221206   -1.2041018    1.0501342   0.30162477    2246.4812   0.89473263    13.096872    13.096872    13.096872 
  262000   -1.6699134    0.4527898   -1.2171236    1.0029469   0.30201012    2245.7423   0.89502702    13.095436    13.095436    13.095436 
  263000   -1.6690458   0.44751393   -1.2215319    0.9502364   0.29849112    2255.8736   0.89100736    13.115099    13.115099    13.115099 
  264000   -1.6565679   0.45045983   -1.2061081    1.0394228   0.30045603    2251.2224   0.89284827     13.10608     13.10608     13.10608 
  265000   -1.6820914   0.43799017   -1.2441012   0.96941143   0.29213879    2240.4368    0.8971465    13.085116    13.085116    13.085116 
  266000   -1.6675754   0.44587964   -1.2216958    1.0458127   0.29740106    2238.8602   0.89777826    13.082046    13.082046    13.082046 
  267000   -1.6612447   0.43539762   -1.2258471    1.0062086   0.29040956    2248.1607   0.89406419    13.100135    13.100135    13.100135 
  268000   -1.6668084   0.44893775   -1.2178706    1.0090464   0.29944081    2248.1675   0.89406148    13.100149    13.100149    13.100149 
  269000   -1.6709602   0.45282354   -1.2181367    1.0068643   0.30203262    2241.7327   0.89662787    13.087638    13.087638    13.087638 
  270000   -1.6653986   0.45068734   -1.2147112    0.9759264   0.30060778    2252.6531   0.89228119    13.108855    13.108855    13.108855 
  271000   -1.6763278   0.45885314   -1.2174747    1.0108928   0.30605436    2237.6921    0.8982469     13.07977     13.07977     13.07977 
  272000   -1.6572715   0.43577593   -1.2214956   0.92084726    0.2906619    2261.9113   0.88862903    13.126789    13.126789    13.126789 
  273000   -1.6648345   0.45288185   -1.2119527    1.0167363   0.30207152    2245.5259   0.89511327    13.095016    13.095016    13.095016 
  274000   -1.6669149   0.44392435   -1.2229905   0.94369274   0.29609688    2255.1458   0.89129491    13.113689    13.113689    13.113689 
  275000   -1.6568895   0.44101121   -1.2158783    1.0714224   0.29415382    2240.8811    0.8969686    13.085981    13.085981    13.085981 
  276000   -1.6677179   0.44270374   -1.2250142    0.9598673   0.29528273    2250.8961   0.89297768    13.105446    13.105446    13.105446 
  277000   -1.6513729   0.44339682   -1.2079761    1.1035305   0.29574502    2242.8833   0.89616788    13.089877    13.089877    13.089877 
  278000   -1.6684767   0.44468341   -1.2237933   0.92832432   0.29660317    2259.7775    0.8894681     13.12266     13.12266     13.12266 
  279000   -1.6758771   0.43946423   -1.2364129   0.95643001   0.29312198    2247.4073   0.89436391    13.098672    13.098672    13.098672 
  280000   -1.6680603   0.46342249   -1.2046378    1.0630846   0.30910211     2237.956   0.89814096    13.080284    13.080284    13.080284 
  281000   -1.6626833    0.4544759   -1.2082074    1.0194762   0.30313475    2250.8197     0.893008    13.105298    13.105298    13.105298 
  282000   -1.6942285   0.44437848     -1.24985   0.93869989   0.29639978    2234.6827   0.89945654    13.073904    13.073904    13.073904 
  283000   -1.6545987    0.4507257    -1.203873    1.0175055   0.30063337    2256.8809   0.89060967    13.117051    13.117051    13.117051 
  284000   -1.6681739   0.45235597   -1.2158179   0.97982079   0.30172076    2251.8067   0.89261658    13.107213    13.107213    13.107213 
  285000   -1.6615304    0.4369397   -1.2245907    1.0075124   0.29143812    2251.4108   0.89277356    13.106445    13.106445    13.106445 
  286000   -1.6604712   0.43933361   -1.2211376    1.0826837   0.29303486    2238.6237   0.89787311    13.081585    13.081585    13.081585 
  287000    -1.661495   0.44627714   -1.2152179    1.0167191   0.29766619     2250.333   0.89320114    13.104353    13.104353    13.104353 
  288000   -1.6652647   0.45817651   -1.2070882   0.96754652   0.30560305    2254.8362    0.8914173    13.113089    13.113089    13.113089 
  289000   -1.6708631   0.46187454   -1.2089886   0.98926829   0.30806963    2246.4424   0.89474806    13.096797    13.096797    13.096797 
  290000   -1.6782263   0.45291649   -1.2253098   0.96501556   0.30209462    2244.0221    0.8957131    13.092092    13.092092    13.092092 
  291000    -1.673029   0.43697621   -1.2360528    1.0062165   0.29146248    2241.3795   0.89676917    13.086951    13.086951    13.086951 
  292000   -1.6529924    0.4552166   -1.1977758    1.1088931   0.30362879    2242.2234   0.89643166    13.088593    13.088593    13.088593 
  293000   -1.6737825   0.43356846    -1.240214    1.0067146   0.28918951    2238.2018   0.89804236    13.080763    13.080763    13.080763 
  294000   -1.6591431   0.44977567   -1.2093674   0.92900698    0.2999997    2267.3016   0.88651639    13.137209    13.137209    13.137209 
  295000   -1.6489396   0.45372119   -1.1952184   0.95954171   0.30263136     2268.294    0.8861285    13.139125    13.139125    13.139125 
  296000     -1.66936   0.45124118   -1.2181189    1.0151563   0.30097719    2243.2135   0.89603596    13.090519    13.090519    13.090519 
  297000   -1.6828327   0.45120242   -1.2316303   0.93186773   0.30095134    2245.0872   0.89528817    13.094163    13.094163    13.094163 
  298000   -1.6555332   0.45095006   -1.2045832    1.0446133   0.30078302    2250.0839   0.89330001     13.10387     13.10387     13.10387 
  299000   -1.6694246   0.45714014   -1.2122845   0.97884517   0.30491179    2248.4418   0.89395244    13.100681    13.100681    13.100681 
  300000   -1.6669157   0.44710488   -1.2198108   0.97769508   0.29821829    2251.3309   0.89280523     13.10629     13.10629     13.10629 
  301000   -1.6739408    0.4427354   -1.2312054   0.90220094   0.29530385    2251.2913   0.89282092    13.106213    13.106213    13.106213 
  302000   -1.6624521   0.44729304   -1.2151591    1.0342583   0.29834379    2243.9877   0.89572682    13.092025    13.092025    13.092025 
  303000   -1.6628214   0.45188785   -1.2109335    1.0007604   0.30140852    2251.2844   0.89282368      13.1062      13.1062      13.1062 
  304000   -1.6675891    0.4386347   -1.2289544   0.94494554   0.29256869    2253.9479   0.89176861    13.111367    13.111367    13.111367 
  305000   -1.6755098   0.46114127   -1.2143685    1.0477664   0.30758054    2236.0716   0.89889785    13.076612    13.076612    13.076612 
  306000   -1.6693438   0.44853036   -1.2208135   0.97604403   0.29916908    2248.9079   0.89376716    13.101586    13.101586    13.101586 
  307000   -1.6722898   0.45234757   -1.2199422   0.99358499   0.30171516    2243.8964   0.89576328    13.091847    13.091847    13.091847 
  308000   -1.6746376   0.45122624   -1.2234114   0.98902577   0.30096723    2243.4314   0.89594893    13.090943    13.090943    13.090943 
  309000   -1.6761979   0.44977622   -1.2264217   0.97398386   0.30000007    2241.1875   0.89684599    13.086577    13.086577    13.086577 
  310000   -1.6691502   0.45328909   -1.2158611    1.0035376   0.30234315    2246.2932   0.89480749    13.096507    13.096507    13.096507 
  311000   -1.6766835   0.44647529   -1.2302082   0.95327344   0.29779835     2247.257   0.89442373     13.09838     13.09838     13.09838 
  312000   -1.6602302   0.44162107   -1.2186092   0.91454355   0.29456059    2264.8733   0.88746687    13.132517    13.132517    13.132517 
  313000   -1.6665958   0.44383119   -1.2227646    1.0057563   0.29603474    2245.4598   0.89513962    13.094887    13.094887    13.094887 
  314000   -1.6786747   0.44424536   -1.2344293    0.9699561   0.29631099    2243.9384    0.8957465    13.091929    13.091929    13.091929 
  315000   -1.6722209    0.4471175   -1.2251034   0.97177408   0.29822671    2247.6422   0.89427046    13.099128    13.099128    13.099128 
  316000   -1.6698045   0.45721654   -1.2125879   0.96782915   0.30496275    2252.0704   0.89251205    13.107725    13.107725    13.107725 
  317000    -1.666332   0.45935549   -1.2069765   0.97021435   0.30638943    2253.1773    0.8920736    13.109872    13.109872    13.109872 
  318000    -1.662898   0.45630276   -1.2065952    1.0396928   0.30435326    2243.1772   0.89605047    13.090449    13.090449    13.090449 
  319000   -1.6714529   0.44715146   -1.2243014   0.97715099   0.29824935    2247.4459   0.89434857    13.098747    13.098747    13.098747 
  320000   -1.6680684   0.43982355   -1.2282449    1.0591336   0.29336165    2238.7174   0.89783552    13.081767    13.081767    13.081767 
  321000   -1.6873461   0.45423034   -1.2331158    1.0347985   0.30297096    2227.5046   0.90235502    13.059891    13.059891    13.059891 
  322000   -1.6703116   0.44758067   -1.2227309   0.95372438   0.29853564    2251.8887   0.89258409    13.107372    13.107372    13.107372 
  323000   -1.6651815   0.45905458    -1.206127   0.91530027   0.30618872    2262.9214   0.88823235    13.128743    13.128743    13.128743 
  324000   -1.6553777   0.47293238   -1.1824453      1.03256   0.31544519    2253.7431   0.89184965    13.110969    13.110969    13.110969 
  325000   -1.6582414   0.46163743   -1.1966039    1.0222627   0.30791148    2255.0464   0.89133422    13.113496    13.113496    13.113496 
  326000   -1.6583315   0.45621977   -1.2021117    1.0004772   0.30429791    2256.7719    0.8906527     13.11684     13.11684     13.11684 
  327000   -1.6636205   0.45447224   -1.2091483      1.01513    0.3031323    2248.2357   0.89403439    13.100281    13.100281    13.100281 
  328000   -1.6721272   0.44743351   -1.2246937   0.99478988   0.29843748    2242.7738   0.89621167    13.089664    13.089664    13.089664 
  329000   -1.6756397   0.45426748   -1.2213722    1.0763972   0.30299573     2230.651   0.90108223    13.066037    13.066037    13.066037 
  330000    -1.670345   0.44968876   -1.2206563   0.92174219   0.29994173    2258.4113   0.89000616    13.120016    13.120016    13.120016 
  331000   -1.6663675   0.46352501   -1.2028425    1.0605467   0.30917049    2241.1731   0.89685173    13.086549    13.086549    13.086549 
  332000   -1.6607238   0.44762957   -1.2130942   0.94980801   0.29856826    2259.3567   0.88963376    13.121846    13.121846    13.121846 
  333000   -1.6756117   0.44718452   -1.2284272    1.0395949    0.2982714    2233.7407   0.89983586    13.072067    13.072067    13.072067 
  334000    -1.672478   0.44846187   -1.2240161   0.94018369    0.2991234    2250.6129   0.89309007    13.104897    13.104897    13.104897 
  335000   -1.6674418   0.43581118   -1.2316306    0.9204937    0.2906854    2258.2981   0.89005078    13.119796    13.119796    13.119796 
  336000   -1.6699154   0.46134576   -1.2085697    1.0010756   0.30771693    2243.2525   0.89602041    13.090595    13.090595    13.090595 
  337000   -1.6658968   0.45265513   -1.2132417   0.95527858    0.3019203    2255.5068   0.89115226    13.114389    13.114389    13.114389 
  338000   -1.6658692   0.46434578   -1.2015234    0.9541509   0.30971794    2255.0488   0.89133326    13.113501    13.113501    13.113501 
  339000   -1.6678961   0.45436752   -1.2135286   0.99242754   0.30306245    2248.9762   0.89374001    13.101719    13.101719    13.101719 
  340000   -1.6681279   0.44336658   -1.2247613   0.96278633   0.29572485    2253.1836   0.89207112    13.109884    13.109884    13.109884 
  341000   -1.6685678   0.44710135   -1.2214664      1.02167   0.29821594    2242.3065   0.89639843    13.088755    13.088755    13.088755 
  342000   -1.6750281   0.45145637   -1.2235717    1.0013783   0.30112072    2241.8372   0.89658605    13.087842    13.087842    13.087842 
  343000   -1.6676615   0.46701952    -1.200642    0.9814754   0.31150132    2250.0877   0.89329853    13.103877    13.103877    13.103877 
  344000   -1.6734301   0.45976022   -1.2136699   0.94665971   0.30665938    2252.3426   0.89240419    13.108253    13.108253    13.108253 
  345000   -1.6565832   0.44397587   -1.2126074    1.0998749   0.29613124    2237.6689   0.89825623    13.079725    13.079725    13.079725 
  346000   -1.6580729   0.44136161   -1.2167113    0.9497916   0.29438753    2259.9914   0.88938391    13.123075    13.123075    13.123075 
  347000    -1.679995   0.45622524   -1.2237697    1.0024884   0.30430155     2238.662   0.89785773     13.08166     13.08166     13.08166 
  348000   -1.6561187   0.45756168   -1.1985571    1.0139535   0.30519296    2256.8195   0.89063392    13.116932    13.116932    13.116932 
  349000   -1.6717451    0.4520379   -1.2197072    1.0040295   0.30150861    2243.4462   0.89594303    13.090972    13.090972    13.090972 
  350000   -1.6743474   0.45376124   -1.2205862     1.038216   0.30265807    2234.9215   0.89936044     13.07437     13.07437     13.07437 
  351000   -1.6637336   0.44250267    -1.221231   0.94555293   0.29514862    2259.7432   0.88948162    13.122594    13.122594    13.122594 
  352000   -1.6763685   0.44047971   -1.2358888   0.96237908   0.29379931    2244.4966   0.89552373    13.093015    13.093015    13.093015 
  353000   -1.6752442   0.43934173   -1.2359024   0.98145363   0.29304028    2246.8503   0.89458565     13.09759     13.09759     13.09759 
  354000   -1.6691241   0.44462544   -1.2244986   0.94557363    0.2965645    2255.4105   0.89119032    13.114202    13.114202    13.114202 
  355000   -1.6659169   0.45902877   -1.2068881    1.0628202   0.30617151    2237.5749   0.89829396    13.079542    13.079542    13.079542 
  356000   -1.6558892   0.43782913     -1.21806     1.012162   0.29203138    2251.4301   0.89276589    13.106483    13.106483    13.106483 
  357000   -1.6421907   0.44252444   -1.1996663    1.0111326   0.29516314    2271.3062   0.88495335    13.144939    13.144939    13.144939 
  358000   -1.6581578   0.44814664   -1.2100111   0.93236191   0.29891314    2264.6603   0.88755034    13.132105    13.132105    13.132105 
  359000   -1.6822679   0.44301034   -1.2392576   0.92485006   0.29548724     2244.376   0.89557186     13.09278     13.09278     13.09278 
  360000   -1.6755647   0.46973302   -1.2058317   0.95046564   0.31331122    2251.0477   0.89291756    13.105741    13.105741    13.105741 
  361000   -1.6669819   0.45155072   -1.2154311     0.966204   0.30118366    2251.0474   0.89291766     13.10574     13.10574     13.10574 
  362000   -1.6819084   0.44483296   -1.2370754    1.0426543   0.29670292    2228.3295   0.90202101    13.061502    13.061502    13.061502 
  363000   -1.6642091   0.44586264   -1.2183465   0.99667527   0.29738971    2247.9562   0.89414552    13.099738    13.099738    13.099738 
  364000   -1.6648213   0.44268011   -1.2221412    1.0108082   0.29526697     2251.015   0.89293054    13.105677    13.105677    13.105677 
  365000   -1.6697209   0.47002929   -1.1996916   0.95134674   0.31350884    2255.6792   0.89108417    13.114723    13.114723    13.114723 
  366000   -1.6627908   0.44254315   -1.2202476   0.93870731   0.29517562    2258.3027   0.89004898    13.119805    13.119805    13.119805 
  367000   -1.6692238   0.45043713   -1.2187866   0.99325133    0.3004409    2248.8065   0.89380745     13.10139     13.10139     13.10139 
  368000   -1.6795568   0.44044722   -1.2391096    1.1088575   0.29377764    2218.9662   0.90582725    13.043182    13.043182    13.043182 
  369000   -1.6643982   0.45343699   -1.2109612    1.0923442   0.30244179    2233.7699    0.8998241    13.072124    13.072124    13.072124 
  370000   -1.6698369   0.45364555   -1.2161913   0.94079316   0.30258091    2253.5062   0.89194339     13.11051     13.11051     13.11051 
  371000   -1.6632358   0.44134149   -1.2218943    1.1134909   0.29437411    2229.0156   0.90174336    13.062843    13.062843    13.062843 
  372000   -1.6588497   0.46107481   -1.1977749    1.0122733   0.30753621    2252.2132   0.89245547    13.108002    13.108002    13.108002 
  373000   -1.6660927   0.45070576    -1.215387    1.0478682   0.30062007    2238.0166   0.89811667    13.080402    13.080402    13.080402 
  374000   -1.6590491   0.44530799   -1.2137411    1.0367212   0.29701977    2247.7466   0.89422892    13.099331    13.099331    13.099331 
  375000   -1.6752156   0.44087752    -1.234338     1.014025   0.29406464     2240.915   0.89695505    13.086046    13.086046    13.086046 
  376000   -1.6825413   0.44662276   -1.2359185    1.0105778   0.29789671     2233.907   0.89976887    13.072391    13.072391    13.072391 
  377000   -1.6808023   0.44101703   -1.2397852   0.98740603    0.2941577    2236.3103   0.89880192    13.077077    13.077077    13.077077 
  378000   -1.6655401   0.45188629   -1.2136538    1.0274329   0.30140748    2245.0554   0.89530083    13.094101    13.094101    13.094101 
  379000   -1.6745407   0.45199677   -1.2225439   0.94844475   0.30148117    2249.3933   0.89357427    13.102529    13.102529    13.102529 
  380000   -1.6744859   0.43595739   -1.2385285     1.009514   0.29078293    2240.1328   0.89726824    13.084524    13.084524    13.084524 
  381000   -1.6607506   0.45681691   -1.2039337    1.0974378   0.30469619    2238.2767   0.89801231    13.080909    13.080909    13.080909 
  382000   -1.6566566   0.44516433   -1.2114923    1.0121751   0.29692395    2254.7963   0.89143308    13.113011    13.113011    13.113011 
  383000   -1.6717581   0.45389508    -1.217863   0.99004294   0.30274734    2246.0616   0.89489976    13.096057    13.096057    13.096057 
  384000   -1.6526972   0.44947224   -1.2032249   0.98081784   0.29979731    2260.6015    0.8891439    13.124255    13.124255    13.124255 
  385000   -1.6567524   0.43988873   -1.2168637    0.9666826   0.29340513    2260.2453   0.88928401    13.123566    13.123566    13.123566 
  386000   -1.6734052   0.46217621    -1.211229    1.0418097   0.30827084    2236.3401   0.89878993    13.077135    13.077135    13.077135 
  387000   -1.6736447   0.45276767   -1.2208771   0.93853923   0.30199536    2253.6803    0.8918745    13.110848    13.110848    13.110848 
  388000   -1.6493507    0.4549745   -1.1943762   0.92912712   0.30346731    2270.7154   0.88518357    13.143799    13.143799    13.143799 
  389000   -1.6591851   0.45294337   -1.2062417    1.0752204   0.30211255    2242.9232   0.89615195    13.089954    13.089954    13.089954 
  390000    -1.663506   0.44414391   -1.2193621   0.92535885   0.29624332    2260.6994   0.88910539    13.124445    13.124445    13.124445 
  391000   -1.6700621   0.45944448   -1.2106176    1.0587513   0.30644878    2235.8685   0.89897952    13.076216    13.076216    13.076216 
  392000   -1.6811287   0.44741406   -1.2337147   0.95930713   0.29842451    2242.2338    0.8964275    13.088613    13.088613    13.088613 
  393000   -1.6640433   0.44354532    -1.220498   0.97242244   0.29584407    2253.0933   0.89210685    13.109709    13.109709    13.109709 
  394000   -1.6566458   0.47404672   -1.1825991    1.0290539   0.31618846    2255.6554   0.89109356    13.114677    13.114677    13.114677 
  395000   -1.6609156   0.45619987   -1.2047157   0.96666029   0.30428463    2257.6936   0.89028909    13.118626    13.118626    13.118626 
  396000   -1.6696735   0.44076344     -1.22891    1.0388643   0.29398856    2237.8725   0.89817451    13.080121    13.080121    13.080121 
  397000     -1.67501   0.44095267   -1.2340573   0.98708155   0.29411477    2244.6416   0.89546588    13.093297    13.093297    13.093297 
  398000   -1.6643572   0.44522454   -1.2191327   0.94839295    0.2969641    2255.3409   0.89121784    13.114067    13.114067    13.114067 
  399000   -1.6702591   0.45508546   -1.2151737   0.94884331   0.30354132    2252.4777   0.89235066    13.108515    13.108515    13.108515 
  400000   -1.6676978   0.47273937   -1.1949584     1.029117   0.31531646    2239.2003    0.8976419    13.082708    13.082708    13.082708 
  401000   -1.6745357   0.44621001   -1.2283257    0.9774349   0.29762141    2245.0212   0.89531448    13.094035    13.094035    13.094035 
  402000   -1.6675718   0.45126384    -1.216308   0.99369212   0.30099231    2248.0413    0.8941117    13.099903    13.099903    13.099903 
  403000   -1.6629905    0.4486323   -1.2143582    1.0233315   0.29923707    2245.0285   0.89531156    13.094049    13.094049    13.094049 
  404000   -1.6775336   0.45211673   -1.2254169    1.0153216   0.30156119    2238.3528   0.89798178    13.081057    13.081057    13.081057 
  405000   -1.6823373   0.45555898   -1.2267783   0.95938608   0.30385716    2244.1829   0.89564894    13.092404    13.092404    13.092404 
  406000   -1.6643729   0.45172235   -1.2126506      1.01249   0.30129813    2248.5753   0.89389936    13.100941    13.100941    13.100941 
  407000   -1.6602607    0.4467309   -1.2135298    1.0598362   0.29796884    2244.2352   0.89562806    13.092506    13.092506    13.092506 
  408000   -1.6684144   0.44393801   -1.2244764   0.93408172   0.29610599     2260.115   0.88933529    13.123314    13.123314    13.123314 
  409000   -1.6572402   0.45073924    -1.206501    1.0360765    0.3006424    2249.1685   0.89366361    13.102092    13.102092    13.102092 
  410000   -1.6656066   0.46156391   -1.2040427   0.97120694   0.30786244     2254.999   0.89135294    13.113404    13.113404    13.113404 
  411000    -1.668697   0.45109052   -1.2176065    1.0355459    0.3008767    2241.1372   0.89686611    13.086479    13.086479    13.086479 
  412000   -1.6744971   0.43539811    -1.239099   0.97377923   0.29040989    2244.0989   0.89568246    13.092241    13.092241    13.092241 
  413000   -1.6650931   0.45316943   -1.2119237   0.98803435   0.30226333    2250.8566   0.89299338     13.10537     13.10537     13.10537 
  414000   -1.6737153   0.45663598   -1.2170793    0.9870863   0.30457552    2244.9543   0.89534116    13.093904    13.093904    13.093904 
  415000   -1.6745982   0.44891191   -1.2256863   0.90139015   0.29942357    2257.2041   0.89048218    13.117677    13.117677    13.117677 
  416000     -1.65852   0.45894331   -1.1995767    1.1001858   0.30611451    2237.8321   0.89819069    13.080043    13.080043    13.080043 
  417000   -1.6658814   0.44131975   -1.2245616   0.97101831   0.29435962    2251.1187   0.89288938    13.105878    13.105878    13.105878 
  418000   -1.6754647   0.45345704   -1.2220077   0.99634053   0.30245517    2242.0998   0.89648106    13.088352    13.088352    13.088352 
  419000   -1.6748737    0.4555836   -1.2192901    1.0406117   0.30387358     2232.426   0.90036579    13.069502    13.069502    13.069502 
  420000   -1.6670657   0.44900663   -1.2180591   0.92357344   0.29948675    2258.3314   0.89003767    13.119861    13.119861    13.119861 
  421000   -1.6666706   0.45204409   -1.2146265   0.98390944   0.30151273    2252.8164   0.89221652    13.109172    13.109172    13.109172 
  422000   -1.6798487   0.45623016   -1.2236185   0.93441498   0.30430483    2245.7501   0.89502389    13.095451    13.095451    13.095451 
  423000     -1.64674   0.44396037   -1.2027796      1.08306    0.2961209    2253.0309   0.89213156    13.109588    13.109588    13.109588 
  424000   -1.6664185   0.44704169   -1.2193768    1.0403579   0.29817614    2246.8786   0.89457437    13.097645    13.097645    13.097645 
  425000   -1.6525333   0.46180585   -1.1907275    1.0007817   0.30802381    2257.7768   0.89025627    13.118787    13.118787    13.118787 
  426000   -1.6622797   0.44857588   -1.2137039     1.072184   0.29919944     2240.181   0.89724892    13.084618    13.084618    13.084618 
  427000   -1.6761707   0.44697471    -1.229196     1.046375   0.29813146     2230.834   0.90100832    13.066394    13.066394    13.066394 
  428000   -1.6573547   0.44233583   -1.2150189    1.0176602   0.29503734    2253.3058   0.89202274    13.110121    13.110121    13.110121 
  429000   -1.6695264   0.43680153   -1.2327249    1.0635967   0.29134597    2232.6014   0.90029506    13.069844    13.069844    13.069844 
  430000   -1.6711159   0.43682487   -1.2342911   0.96232055   0.29136154     2250.578   0.89310391    13.104829    13.104829    13.104829 
  431000   -1.6732485   0.44328084   -1.2299677   0.99287362   0.29566766    2241.9719   0.89653218    13.088104    13.088104    13.088104 
  432000   -1.6704823   0.45192001   -1.2185623    1.0128525   0.30142997    2240.4902   0.89712509     13.08522     13.08522     13.08522 
  433000   -1.6645626   0.43573803   -1.2288246    0.9664828   0.29063661    2252.3867   0.89238675    13.108339    13.108339    13.108339 
  434000   -1.6735337   0.44920604   -1.2243277    1.0223491   0.29961976    2236.6464   0.89866686    13.077732    13.077732    13.077732 
  435000    -1.671459    0.4433951   -1.2280639   0.99981384   0.29574387    2245.4835   0.89513015    13.094933    13.094933    13.094933 
  436000   -1.6810317   0.43996629   -1.2410654   0.94804672   0.29345686    2242.7866   0.89620651    13.089689    13.089689    13.089689 
  437000   -1.6499815   0.43943061   -1.2105509    1.0707825   0.29309956    2248.1081   0.89408511    13.100033    13.100033    13.100033 
  438000    -1.657549   0.45754499    -1.200004    1.0255282   0.30518183    2247.7514     0.894227     13.09934     13.09934     13.09934 
  439000   -1.6619867    0.4399113   -1.2220754    1.0912407   0.29342018    2238.7031   0.89784126     13.08174     13.08174     13.08174 
  440000   -1.6643399   0.45711448   -1.2072254   0.97326393   0.30489467    2253.4925   0.89194882    13.110483    13.110483    13.110483 
  441000   -1.6542909   0.45405077   -1.2002401    1.1028134   0.30285119    2240.5209   0.89711282    13.085279    13.085279    13.085279 
  442000   -1.6637558   0.44745492   -1.2163009    1.0167368   0.29845176    2243.8344   0.89578802    13.091727    13.091727    13.091727 
  443000   -1.6560291   0.43699825   -1.2190309    1.0047891   0.29147718     2257.099   0.89052362    13.117474    13.117474    13.117474 
  444000   -1.6636074   0.45468854   -1.2089189    1.0602817   0.30327658    2240.2815   0.89720868    13.084813    13.084813    13.084813 
  445000   -1.6818011   0.43666396   -1.2451371   0.97142549   0.29125421    2240.5167   0.89711451    13.085271    13.085271    13.085271 
  446000   -1.6619737    0.4508154   -1.2111583    1.0239866    0.3006932     2250.446   0.89315629    13.104573    13.104573    13.104573 
  447000   -1.6694313   0.46291314   -1.2065182    1.0019456   0.30876237    2245.7315   0.89503131    13.095415    13.095415    13.095415 
  448000   -1.6699003   0.44797391   -1.2219264   0.98632529   0.29879793      2248.66   0.89386567    13.101105    13.101105    13.101105 
  449000    -1.673619   0.45889935   -1.2147196     1.067519   0.30608518    2231.4165   0.90077313    13.067531    13.067531    13.067531 
  450000   -1.6768726   0.45450981   -1.2223628   0.90064508   0.30315737    2256.0085   0.89095409    13.115361    13.115361    13.115361 
  451000   -1.6588027    0.4502546   -1.2085481   0.93801779   0.30031915    2260.6932   0.88910782    13.124433    13.124433    13.124433 
  452000   -1.6650809   0.43622257   -1.2288584    1.0515945    0.2909598    2240.7321   0.89702826     13.08569     13.08569     13.08569 
  453000   -1.6604067   0.43927426   -1.2211325   0.97574624   0.29299527    2257.2312   0.89047149     13.11773     13.11773     13.11773 
  454000   -1.6735241   0.44690752   -1.2266166    1.0385751   0.29808665    2235.5644    0.8991018    13.075623    13.075623    13.075623 
  455000   -1.6507213   0.44257104   -1.2081503   0.97637734   0.29519422    2262.9893   0.88820571    13.128875    13.128875    13.128875 
  456000   -1.6768908   0.44737145   -1.2295194    1.0437493   0.29839609    2234.5259   0.89951965    13.073598    13.073598    13.073598 
  457000    -1.669847   0.45175709   -1.2180899   0.95837863   0.30132131    2252.8571    0.8922004    13.109251    13.109251    13.109251 
  458000    -1.663869   0.44809702    -1.215772    1.0734009   0.29888005     2238.454   0.89794116    13.081254    13.081254    13.081254 
  459000   -1.6676503   0.46985462   -1.1977957     1.060263   0.31339233    2240.5099   0.89711723    13.085258    13.085258    13.085258 
  460000   -1.6614646   0.43474475   -1.2267198   0.97714111    0.2899741    2254.5881   0.89151539    13.112608    13.112608    13.112608 
  461000   -1.6671213   0.45029907   -1.2168223   0.99378953   0.30034881    2248.0423    0.8941113    13.099905    13.099905    13.099905 
  462000    -1.666681   0.44077496   -1.2259061    1.0156649   0.29399624    2244.7659    0.8954163    13.093538    13.093538    13.093538 
  463000   -1.6712439   0.44516232   -1.2260816    1.0007174    0.2969226    2243.7976   0.89580271    13.091655    13.091655    13.091655 
  464000   -1.6602814   0.44445529   -1.2158261   0.97406026   0.29645102    2252.6519   0.89228169    13.108853    13.108853    13.108853 
  465000   -1.6744097    0.4535473   -1.2208624    1.0238427   0.30251537    2238.4745   0.89793296    13.081294    13.081294    13.081294 
  466000   -1.6695916   0.45063008   -1.2189615   0.97375735   0.30056959    2252.2564   0.89243834    13.108086    13.108086    13.108086 
  467000   -1.6645779   0.45852333   -1.2060546   0.99114487   0.30583437    2252.7859   0.89222859    13.109113    13.109113    13.109113 
  468000   -1.6745919    0.4452525   -1.2293394   0.90201672   0.29698275    2255.5353   0.89114099    13.114444    13.114444    13.114444 
  469000   -1.6773643   0.44571871   -1.2316456   0.98664201   0.29729372    2239.2124   0.89763706    13.082731    13.082731    13.082731 
  470000   -1.6679993   0.44099736   -1.2270019    1.0082885   0.29414458     2244.006   0.89571955     13.09206     13.09206     13.09206 
  471000   -1.6663036   0.45268477   -1.2136188    1.0307244   0.30194007    2244.4856   0.89552815    13.092993    13.092993    13.092993 
  472000   -1.6583832   0.43942501   -1.2189582    1.0648627   0.29309583    2241.4152   0.89675489     13.08702     13.08702     13.08702 
  473000   -1.6842695   0.44361444   -1.2406551   0.96142751   0.29589017    2236.1035   0.89888507    13.076674    13.076674    13.076674 
  474000   -1.6688057   0.46048407   -1.2083216     1.011967   0.30714219    2245.3347   0.89518948    13.094644    13.094644    13.094644 
  475000   -1.6669515   0.44946485   -1.2174866    1.0355701   0.29979238    2240.9091   0.89695741    13.086035    13.086035    13.086035 
  476000     -1.67294    0.4504451   -1.2224949    0.9439957   0.30044621    2253.0275   0.89213293    13.109582    13.109582    13.109582 
  477000   -1.6626901   0.46210066   -1.2005894    1.0841817   0.30822045    2237.6515    0.8982632    13.079691    13.079691    13.079691 
  478000   -1.6812738   0.45693176    -1.224342   0.92680195    0.3047728    2250.7508   0.89303532    13.105164    13.105164    13.105164 
  479000    -1.663727   0.44590973   -1.2178172    1.0097418   0.29742113    2250.7878   0.89302066    13.105236    13.105236    13.105236 
  480000   -1.6728853   0.44113719   -1.2317481    1.0435162   0.29423785    2233.2734   0.90002417    13.071155    13.071155    13.071155 
  481000   -1.6740945   0.44652165   -1.2275729    1.0187904   0.29782928    2238.6376   0.89786752    13.081612    13.081612    13.081612 
  482000   -1.6554471   0.45476923   -1.2006779    1.0063538   0.30333039    2254.5199   0.89154236    13.112476    13.112476    13.112476 
  483000    -1.669963     0.458138    -1.211825    1.0415653   0.30557736    2239.6825   0.89744863    13.083647    13.083647    13.083647 
  484000   -1.6700657   0.44488518   -1.2251805    1.0056226   0.29673775    2244.9857   0.89532863    13.093966    13.093966    13.093966 
  485000   -1.6761711   0.44819383   -1.2279773   0.99478284   0.29894462    2242.5368   0.89630637    13.089203    13.089203    13.089203 
  486000   -1.6606905   0.44348501   -1.2172055    1.0221852   0.29580384    2248.4091   0.89396541    13.100618    13.100618    13.100618 
  487000   -1.6676473   0.44438059   -1.2232667    1.0523487   0.29640119    2241.9727    0.8965319    13.088105    13.088105    13.088105 
  488000   -1.6653358   0.45816778    -1.207168    1.0369956   0.30559723    2243.6027   0.89588054    13.091276    13.091276    13.091276 
  489000   -1.6739228   0.43146238   -1.2424604    1.0666486   0.28778476    2231.4839   0.90074592    13.067663    13.067663    13.067663 
  490000   -1.6557166   0.44317327   -1.2125434   0.89165959   0.29559591    2272.3449   0.88454883    13.146942    13.146942    13.146942 
  491000   -1.6803682   0.44881452   -1.2315537   0.97773243   0.29935861    2241.5559   0.89669858    13.087294    13.087294    13.087294 
  492000   -1.6641137   0.46514457   -1.1989691     1.029505   0.31025073    2248.4459   0.89395081    13.100689    13.100689    13.100689 
  493000   -1.6611956   0.44734901   -1.2138466   0.94750641   0.29838112    2259.4002   0.88961663     13.12193     13.12193     13.12193 
  494000   -1.6686813   0.44387122   -1.2248101   0.97841231   0.29606144    2247.0133   0.89452074    13.097906    13.097906    13.097906 
  495000   -1.6733005   0.45373386   -1.2195666    1.0055924    0.3026398    2240.4869   0.89712643    13.085213    13.085213    13.085213 
  496000    -1.653917   0.44334965   -1.2105674    1.0158425   0.29571356    2254.1369   0.89169384    13.111733    13.111733    13.111733 
  497000   -1.6733573   0.43338777   -1.2399695    1.0159062     0.289069    2240.3168   0.89719455    13.084882    13.084882    13.084882 
  498000   -1.6717688   0.45313781    -1.218631   0.95521426   0.30224224    2248.8641   0.89378455    13.101501    13.101501    13.101501 
  499000   -1.6758531   0.45133639   -1.2245167     1.090555    0.3010407    2227.0868   0.90252431    13.059074    13.059074    13.059074 
  500000   -1.6752413   0.44704742   -1.2281938   0.89003265   0.29817996    2259.4749   0.88958722    13.122075    13.122075    13.122075 
  501000   -1.6610387   0.44618544   -1.2148532    1.0271717   0.29760502    2248.9458    0.8937521     13.10166     13.10166     13.10166 
  502000   -1.6758305   0.45617552    -1.219655    1.0310254   0.30426839    2232.3484   0.90039707     13.06935     13.06935     13.06935 
  503000   -1.6691215   0.44605092   -1.2230706   0.91798546    0.2975153    2256.6869   0.89068625    13.116675    13.116675    13.116675 
  504000   -1.6722202   0.44824836   -1.2239718    1.1109505   0.29898099    2225.4685   0.90318061     13.05591     13.05591     13.05591 
  505000   -1.6709321   0.46048561   -1.2104464    1.0110752   0.30714322    2246.8029   0.89460449    13.097498    13.097498    13.097498 
  506000   -1.6812557   0.44422009   -1.2370356   0.96977371   0.29629414    2240.3871    0.8971664    13.085019    13.085019    13.085019 
  507000   -1.6738006   0.46075257    -1.213048    1.0154294   0.30732128    2241.2086   0.89683754    13.086618    13.086618    13.086618 
  508000    -1.660728   0.44901454   -1.2117135   0.99500418   0.29949203    2254.1257   0.89169829    13.111711    13.111711    13.111711 
  509000   -1.6702493   0.45973447   -1.2105148   0.95603904    0.3066422    2252.1415    0.8924839    13.107863    13.107863    13.107863 
  510000   -1.6598515   0.45912115   -1.2007303   0.99370401   0.30623312     2252.632   0.89228957    13.108814    13.108814    13.108814 
  511000   -1.6783871   0.43974476   -1.2386424   0.94482535    0.2933091    2245.8545   0.89498229    13.095654    13.095654    13.095654 
  512000   -1.6710315   0.46375511   -1.2072764   0.97125623   0.30932396    2250.6016   0.89309453    13.104875    13.104875    13.104875 
  513000   -1.6708619   0.44846714   -1.2223948   0.98012184   0.29912691    2248.6923   0.89385285    13.101168    13.101168    13.101168 
  514000   -1.6661535   0.45145159    -1.214702    1.0217898   0.30111754    2243.5988   0.89588211    13.091269    13.091269    13.091269 
  515000   -1.6767614    0.4434795   -1.2332819    1.0006079   0.29580016    2237.3537   0.89838275    13.079111    13.079111    13.079111 
  516000   -1.6627576   0.43623011   -1.2265275    1.0523724   0.29096483     2239.997   0.89732265    13.084259    13.084259    13.084259 
  517000   -1.6614834   0.44329743   -1.2181859   0.95908588   0.29567873    2258.5808   0.88993938    13.120344    13.120344    13.120344 
  518000   -1.6566803     0.447369   -1.2093113   0.98501329   0.29839445    2259.7851   0.88946509    13.122675    13.122675    13.122675 
  519000   -1.6578219   0.44677252   -1.2110494    1.0387904    0.2979966    2248.1305    0.8940762    13.100077    13.100077    13.100077 
  520000   -1.6721569   0.45103213   -1.2211247    1.0441304   0.30083776    2238.6386   0.89786713    13.081614    13.081614    13.081614 
  521000   -1.6584356   0.46169964   -1.1967359    1.0451514   0.30795297    2247.4923   0.89433011    13.098837    13.098837    13.098837 
  522000   -1.6713923   0.44143298   -1.2299593   0.94909447   0.29443514    2251.4541   0.89275636    13.106529    13.106529    13.106529 
  523000   -1.6671971   0.45381593   -1.2133812    1.0475388   0.30269455    2239.4547   0.89753991    13.083203    13.083203    13.083203 
  524000   -1.6623252   0.44470475   -1.2176204    1.0102613   0.29661741    2248.0193   0.89412043    13.099861    13.099861    13.099861 
  525000   -1.6750835    0.4405655    -1.234518     1.045807   0.29385653    2229.4653   0.90156146    13.063721    13.063721    13.063721 
  526000   -1.6663285   0.45677892   -1.2095496    1.0274237   0.30467086    2245.7503   0.89502381    13.095452    13.095452    13.095452 
  527000   -1.6602609   0.44622513   -1.2140358   0.98285326    0.2976315    2254.2244   0.89165924    13.111903    13.111903    13.111903 
  528000   -1.6592454   0.46564431   -1.1936011    1.0109194   0.31058406    2252.1529   0.89247935    13.107885    13.107885    13.107885 
  529000   -1.6687373   0.46339883   -1.2053385    1.0209298   0.30908633    2244.0727   0.89569291     13.09219     13.09219     13.09219 
  530000   -1.6794938   0.45770859   -1.2217853   0.98374179   0.30529094    2240.5223   0.89711226    13.085282    13.085282    13.085282 
  531000    -1.683448   0.43847457   -1.2449734   0.97243881   0.29246188    2240.5261   0.89711073     13.08529     13.08529     13.08529 
  532000   -1.6740909   0.44817214   -1.2259188    1.0344367   0.29893015    2237.1552   0.89846249    13.078724    13.078724    13.078724 
  533000   -1.6622282    0.4519965   -1.2102317    1.0368714   0.30148099    2244.8864   0.89536825    13.093772    13.093772    13.093772 
  534000    -1.676762   0.44703778   -1.2297243   0.93242924   0.29817353    2250.8371    0.8930011    13.105332    13.105332    13.105332 
  535000   -1.6676775   0.44701801   -1.2206595    1.0670586   0.29816035    2237.5343   0.89831026    13.079463    13.079463    13.079463 
  536000   -1.6768907   0.44302323   -1.2338675   0.96613609   0.29549583    2242.6729   0.89625196    13.089468    13.089468    13.089468 
  537000   -1.6588668   0.45547294   -1.2033939   0.97759412   0.30379977    2256.4534   0.89077841    13.116223    13.116223    13.116223 
  538000   -1.6649541   0.45624971   -1.2087044    1.0715509   0.30431787    2240.4832   0.89712793    13.085206    13.085206    13.085206 
  539000    -1.658096   0.43644841   -1.2216476    1.0138577   0.29111044    2251.3994   0.89277807    13.106423    13.106423    13.106423 
  540000   -1.6644771    0.4576069   -1.2068702    1.0218741   0.30522312    2248.2211   0.89404016    13.100253    13.100253    13.100253 
  541000   -1.6814536   0.44422161    -1.237232   0.98047087   0.29629515    2241.8609   0.89657659    13.087888    13.087888    13.087888 
  542000   -1.6682661   0.45075381   -1.2175123   0.99269852   0.30065212    2247.8802   0.89417577    13.099591    13.099591    13.099591 
  543000   -1.6505436   0.44863033   -1.2019133    1.0533749   0.29923576    2252.5996    0.8923024    13.108752    13.108752    13.108752 
  544000   -1.6763625   0.44363818   -1.2327244   0.98621617     0.295906    2242.1398   0.89646508     13.08843     13.08843     13.08843 
  545000   -1.6747543   0.44993271   -1.2248216    1.0424196   0.30010444    2237.4098   0.89836023     13.07922     13.07922     13.07922 
  546000   -1.6731829   0.43336526   -1.2398176   0.97303893   0.28905398    2245.8046   0.89500218    13.095557    13.095557    13.095557 
  547000    -1.656864   0.45080056   -1.2060635    1.0856836    0.3006833    2242.1708   0.89645269     13.08849     13.08849     13.08849 
  548000   -1.6704313   0.44443928    -1.225992   0.91671282   0.29644034    2255.2327   0.89126057    13.113857    13.113857    13.113857 
  549000    -1.660346    0.4442644   -1.2160816    0.9970444   0.29632369    2248.4673   0.89394229    13.100731    13.100731    13.100731 
  550000   -1.6622976   0.43933088   -1.2229667    1.0124363   0.29303304    2246.4455   0.89474684    13.096803    13.096803    13.096803 
  551000   -1.6604333   0.44791851   -1.2125148    1.0011921   0.29876098    2252.3203   0.89241303     13.10821     13.10821     13.10821 
  552000   -1.6538998   0.46003417   -1.1938656    1.0488214   0.30684211    2251.8977   0.89258053     13.10739     13.10739     13.10739 
  553000   -1.6640424   0.45963818   -1.2044042   0.94142171   0.30657798    2259.0956   0.88973659     13.12134     13.12134     13.12134 
  554000   -1.6773357   0.45374324   -1.2235925    1.0070048   0.30264606    2239.7262   0.89743111    13.083732    13.083732    13.083732 
  555000   -1.6732167   0.43486348   -1.2383532   0.96035912   0.29005329    2246.6648   0.89465951    13.097229    13.097229    13.097229 
  556000   -1.6713381   0.45181376   -1.2195243    1.0120195    0.3013591    2241.3582    0.8967777    13.086909    13.086909    13.086909 
  557000   -1.6531333   0.46310625    -1.190027   0.98757726   0.30889118    2263.7942   0.88788988    13.130431    13.130431    13.130431 
  558000    -1.661935   0.44104721   -1.2208878    1.0181176   0.29417783    2249.8648   0.89338702    13.103444    13.103444    13.103444 
  559000   -1.6785957    0.4517382   -1.2268576    1.0916494    0.3013087    2223.7315   0.90388612    13.052512    13.052512    13.052512 
  560000   -1.6711451    0.4563229   -1.2148222    1.0020975   0.30436669    2244.9177   0.89535576    13.093833    13.093833    13.093833 
  561000   -1.6799403   0.44542052   -1.2345197    1.0018444   0.29709482    2237.7538   0.89822212     13.07989     13.07989     13.07989 
  562000    -1.658893   0.45994316   -1.1989498    1.0189761    0.3067814    2252.9992   0.89214413    13.109527    13.109527    13.109527 
  563000   -1.6662631   0.45731695   -1.2089461   0.97427236   0.30502972    2254.9214   0.89138363    13.113254    13.113254    13.113254 
  564000   -1.6687702   0.45323053   -1.2155397    1.0030316   0.30230408     2247.295   0.89440862    13.098454    13.098454    13.098454 
  565000   -1.6649695     0.458475   -1.2064946   0.92009818   0.30580214    2260.8482   0.88904685    13.124733    13.124733    13.124733 
  566000   -1.6627649   0.45450592   -1.2082589    1.0595593   0.30315477    2241.6101   0.89667691    13.087399    13.087399    13.087399 
  567000   -1.6603283   0.43597686   -1.2243514    1.0364351   0.29079591    2245.1986   0.89524375    13.094379    13.094379    13.094379 
  568000   -1.6898986   0.45181109   -1.2380876    1.0079618   0.30135732    2228.4348   0.90197836    13.061708    13.061708    13.061708 
  569000   -1.6579868   0.44408032   -1.2139065   0.97337702   0.29620091    2258.0619   0.89014389    13.119339    13.119339    13.119339 
  570000   -1.6945035   0.45896967   -1.2355338    1.0202324   0.30613208    2224.8849   0.90341753    13.054769    13.054769    13.054769 
  571000   -1.6871682   0.44113938   -1.2460288   0.89884505   0.29423931    2247.5581   0.89430392    13.098965    13.098965    13.098965 
  572000   -1.6685136   0.45280053   -1.2157131    1.0284512   0.30201728    2241.1119   0.89687623     13.08643     13.08643     13.08643 
  573000   -1.6689841   0.44192179   -1.2270623    1.0226257   0.29476117    2243.3103   0.89599732    13.090707    13.090707    13.090707 
  574000   -1.6667943   0.46271199   -1.2040823    0.9682229   0.30862821    2254.0498   0.89172829    13.111564    13.111564    13.111564 
  575000   -1.6705386    0.4477989   -1.2227397   0.92773153    0.2986812    2252.6221   0.89229349    13.108795    13.108795    13.108795 
  576000   -1.6698547   0.45533791   -1.2145168   0.93709044   0.30370971    2256.1582   0.89089498    13.115651    13.115651    13.115651 
  577000   -1.6741436   0.44564093   -1.2285027    1.0911647   0.29724184    2226.8983   0.90260071    13.058706    13.058706    13.058706 
  578000   -1.6637435   0.44697766   -1.2167658    1.0187136   0.29813343    2247.8393   0.89419204    13.099511    13.099511    13.099511 
  579000   -1.6678952   0.46476437   -1.2031309   0.93555135   0.30999714    2259.0328    0.8897613    13.121219    13.121219    13.121219 
  580000   -1.6591352   0.45317889   -1.2059563    0.9751003   0.30226965    2258.9607   0.88978971    13.121079    13.121079    13.121079 
  581000   -1.6655229   0.44460101   -1.2209219    1.0884247   0.29654821    2233.4821   0.89994006    13.071562    13.071562    13.071562 
  582000   -1.6714266   0.43930778   -1.2321188    1.0293693   0.29301764    2237.7521    0.8982228    13.079887    13.079887    13.079887 
  583000   -1.6657535   0.45230905   -1.2134444    0.9865499   0.30168946    2248.2309   0.89403629    13.100272    13.100272    13.100272 
  584000   -1.6591755   0.44860241   -1.2105731   0.91204573   0.29921714     2268.527   0.88603749    13.139575    13.139575    13.139575 
  585000   -1.6711911    0.4640173   -1.2071738    1.0818315   0.30949885    2232.9234   0.90016522    13.070472    13.070472    13.070472 
  586000   -1.6556402   0.44691239   -1.2087278    1.0643359    0.2980899    2246.4546   0.89474322    13.096821    13.096821    13.096821 
  587000   -1.6576447   0.46674067    -1.190904   0.95841428   0.31131533    2258.6493   0.88991241    13.120476    13.120476    13.120476 
  588000   -1.6648156   0.43506702   -1.2297486   0.97369918   0.29018905    2251.7172   0.89265206     13.10704     13.10704     13.10704 
  589000   -1.6650286   0.45337141   -1.2116572    1.0405103   0.30239805    2243.7378   0.89582659    13.091539    13.091539    13.091539 
  590000    -1.669363   0.45698942   -1.2123736    1.0148075   0.30481126    2242.4416   0.89634441    13.089017    13.089017    13.089017 
  591000   -1.6584954   0.44567495   -1.2128205   0.95081078   0.29726452    2263.3256   0.88807371    13.129525    13.129525    13.129525 
  592000   -1.6610311   0.45554008    -1.205491   0.98946304   0.30384455    2253.6771   0.89187576    13.110841    13.110841    13.110841 
  593000   -1.6697402   0.45073529   -1.2190049   0.95066015   0.30063976    2252.3744   0.89239161    13.108315    13.108315    13.108315 
  594000   -1.6602492    0.4407385   -1.2195107    1.0608288   0.29397192    2240.3229    0.8971921    13.084894    13.084894    13.084894 
  595000   -1.6572361   0.46145339   -1.1957827    1.0020646   0.30778872    2255.8182   0.89102924    13.114992    13.114992    13.114992 
  596000   -1.6631397   0.44020069    -1.222939   0.98966065    0.2936132    2252.5341   0.89232831    13.108625    13.108625    13.108625 
  597000   -1.6556863   0.43954638     -1.21614    1.1227111   0.29317678    2232.5064   0.90033337    13.069658    13.069658    13.069658 
  598000   -1.6555938   0.44072138   -1.2148724    1.0426454   0.29396051    2247.9585    0.8941446    13.099743    13.099743    13.099743 
  599000   -1.6576921   0.45780807    -1.199884   0.93754983    0.3053573    2263.6581   0.88794327    13.130168    13.130168    13.130168 
  600000    -1.666776   0.44344114   -1.2233349   0.95294992   0.29577458    2255.3709   0.89120596    13.114125    13.114125    13.114125 
  601000   -1.6649879   0.45801496   -1.2069729     1.041989    0.3054953    2241.9571   0.89653812    13.088075    13.088075    13.088075 
  602000   -1.6686649   0.44245512   -1.2262098    1.0008815    0.2951169    2246.2369   0.89482992    13.096398    13.096398    13.096398 
  603000   -1.6615782   0.45330257   -1.2082756   0.92894371   0.30235214    2263.9526   0.88782778    13.130737    13.130737    13.130737 
  604000   -1.6492831   0.45586009    -1.193423    1.0101958     0.304058    2259.3749    0.8896266    13.121881    13.121881    13.121881 
  605000   -1.6630272   0.44666205   -1.2163651   0.98441567   0.29792292    2253.4291   0.89197394     13.11036     13.11036     13.11036 
  606000   -1.6716661    0.4586874   -1.2129787   0.99189047   0.30594381    2244.9588   0.89533937    13.093913    13.093913    13.093913 
  607000   -1.6703895   0.45383341    -1.216556   0.91428634   0.30270621    2261.6746     0.888722    13.126332    13.126332    13.126332 
  608000   -1.6649824   0.44661138    -1.218371     0.990719   0.29788912    2248.0912   0.89409185         13.1         13.1         13.1 
  609000   -1.6535662   0.45921444   -1.1943518    1.0468741   0.30629534    2251.7075   0.89265592    13.107021    13.107021    13.107021 
  610000   -1.6646691   0.44224012    -1.222429    1.0394241    0.2949735    2243.4334   0.89594814    13.090947    13.090947    13.090947 
  611000   -1.6605107   0.44816721   -1.2123435   0.99765253   0.29892686    2250.6077   0.89309212    13.104887    13.104887    13.104887 
  612000   -1.6704919   0.44193634   -1.2285556   0.99762355   0.29477088    2241.0016   0.89692038    13.086215    13.086215    13.086215 
  613000   -1.6749072   0.45146552   -1.2234417    0.9014052   0.30112683    2255.3459   0.89121586    13.114077    13.114077    13.114077 
  614000   -1.6733768   0.45372097   -1.2196558    1.0658682   0.30263121     2233.238   0.90003842    13.071086    13.071086    13.071086 
  615000   -1.6914512   0.45872028   -1.2327309   0.98398879   0.30596574    2228.9553   0.90176776    13.062725    13.062725    13.062725 
  616000   -1.6599782   0.45241156   -1.2075667    1.1364492   0.30175784    2229.4202    0.9015797    13.063633    13.063633    13.063633 
  617000    -1.674136   0.44137386   -1.2327621   0.95365043   0.29439571    2246.7046   0.89464366    13.097306    13.097306    13.097306 
  618000   -1.6553366   0.45021195   -1.2051247    1.0632799    0.3002907    2248.3514   0.89398835    13.100506    13.100506    13.100506 
  619000    -1.659967    0.4534489   -1.2065181    1.0466549   0.30244974    2246.6116   0.89468068    13.097126    13.097126    13.097126 
  620000   -1.6587344   0.45767419   -1.2010602   0.97968918     0.305268    2254.3445   0.89161172    13.112136    13.112136    13.112136 
  621000   -1.6625839     0.461461   -1.2011229    1.0143704    0.3077938    2251.8436   0.89260194    13.107285    13.107285    13.107285 
  622000   -1.6571947    0.4452291   -1.2119656    1.0866904   0.29696715    2241.5778   0.89668981    13.087337    13.087337    13.087337 
  623000   -1.6703478   0.45175087    -1.218597    1.0333037   0.30131715    2236.9664   0.89853831    13.078356    13.078356    13.078356 
  624000   -1.6766482   0.44243184   -1.2342164   0.93177933   0.29510137    2244.7128   0.89543748    13.093435    13.093435    13.093435 
  625000   -1.6541396    0.4390734   -1.2150662   0.98572518    0.2928613    2255.4607   0.89117046    13.114299    13.114299    13.114299 
  626000   -1.6610097   0.44687397   -1.2141358    1.0271728   0.29806427    2248.6676   0.89386268     13.10112     13.10112     13.10112 
  627000   -1.6688643   0.43630312   -1.2325612   0.87948821   0.29101353    2265.2515   0.88731871    13.133248    13.133248    13.133248 
  628000   -1.6546978   0.44876648   -1.2059313    1.0639539   0.29932657    2249.0315   0.89371801    13.101827    13.101827    13.101827 
  629000   -1.6771064   0.47134157   -1.2057648    1.0573108   0.31438412    2230.7343   0.90104858    13.066199    13.066199    13.066199 
  630000    -1.670631   0.43657213   -1.2340588    0.9178926   0.29119296    2254.0464   0.89172964    13.111558    13.111558    13.111558 
  631000   -1.6818738   0.46032544   -1.2215484   0.99554577   0.30703638    2238.7498   0.89782251    13.081831    13.081831    13.081831 
  632000   -1.6585485   0.44929814   -1.2092504    1.0017846   0.29968119    2253.5322   0.89193313     13.11056     13.11056     13.11056 
  633000   -1.6649386   0.44910475   -1.2158338     1.016733    0.2995522    2245.4933   0.89512627    13.094952    13.094952    13.094952 
  634000   -1.6562608    0.4435442   -1.2127166    1.0098287   0.29584332    2252.8686   0.89219583    13.109273    13.109273    13.109273 
  635000   -1.6686226   0.44029269   -1.2283299   0.97594041   0.29367457    2248.0274   0.89411721    13.099876    13.099876    13.099876 
  636000   -1.6588833   0.45285792   -1.2060254    1.0443544   0.30205556    2246.9305   0.89455371    13.097745    13.097745    13.097745 
  637000   -1.6694645    0.4584514   -1.2110131   0.90475694    0.3057864    2262.5185   0.88839051    13.127964    13.127964    13.127964 
  638000   -1.6354215   0.46139378   -1.1740278    1.0367001   0.30774896    2268.0495   0.88622405    13.138653    13.138653    13.138653 
  639000   -1.6641073   0.45552643   -1.2085808   0.90436026   0.30383545     2264.324   0.88768216    13.131455    13.131455    13.131455 
  640000   -1.6527122   0.45128985   -1.2014224    1.0175998   0.30100966    2254.2118   0.89166423    13.111878    13.111878    13.111878 
  641000   -1.6658172   0.45128044   -1.2145368    1.0454444   0.30100338    2241.1673   0.89685406    13.086538    13.086538    13.086538 
  642000    -1.673419   0.44422156   -1.2291974   0.99820949   0.29629512    2242.5565   0.89629848    13.089241    13.089241    13.089241 
  643000   -1.6875494    0.4490234    -1.238526    1.0601305   0.29949794    2220.7254   0.90510964    13.046628    13.046628    13.046628 
  644000   -1.6554072   0.46426014   -1.1911471    1.0690382   0.30966082    2244.2495   0.89562234    13.092534    13.092534    13.092534 
  645000   -1.6604809   0.43287968   -1.2276013   0.99049541    0.2887301    2250.4667   0.89314806    13.104613    13.104613    13.104613 
  646000   -1.6717471    0.4559564   -1.2157907    1.0180551   0.30412224    2239.8232   0.89739227    13.083921    13.083921    13.083921 
  647000   -1.6683873   0.43276364   -1.2356236    1.0303074    0.2886527     2241.057   0.89689821    13.086323    13.086323    13.086323 
  648000   -1.6774135   0.43763292   -1.2397805    1.0234711    0.2919005    2236.7202   0.89863722    13.077876    13.077876    13.077876 
  649000   -1.6650461   0.46586388   -1.1991822    1.0510313   0.31073051    2244.4705   0.89553416    13.092964    13.092964    13.092964 
  650000   -1.6663629   0.45381755   -1.2125453    1.0439306   0.30269563    2241.5596   0.89669711    13.087301    13.087301    13.087301 
  651000   -1.6659739   0.45336809   -1.2126058   0.92590604   0.30239584    2261.1674   0.88892137     13.12535     13.12535     13.12535 
  652000   -1.6681773    0.4481006   -1.2200767   0.99332041   0.29888243    2249.9598   0.89334929    13.103629    13.103629    13.103629 
  653000   -1.6607445   0.44874971   -1.2119947    1.0860577   0.29931538     2240.276    0.8972109    13.084803    13.084803    13.084803 
  654000   -1.6644304   0.45271682   -1.2117136   0.98024121   0.30196144    2253.8337   0.89181379    13.111145    13.111145    13.111145 
  655000   -1.6737453   0.45639217   -1.2173532   0.99614476   0.30441289    2243.8568    0.8957791     13.09177     13.09177     13.09177 
  656000   -1.6622978    0.4446495   -1.2176483    1.0320564   0.29658055    2247.5233   0.89431776    13.098897    13.098897    13.098897 
  657000   -1.6716586    0.4440921   -1.2275665   0.93255336   0.29620877    2250.6017   0.89309452    13.104875    13.104875    13.104875 
  658000    -1.668442   0.44934376   -1.2190983    1.0451934   0.29971161    2236.2172   0.89883934    13.076896    13.076896    13.076896 
  659000   -1.6747724   0.44869007   -1.2260823   0.91670241    0.2992756    2256.8852   0.89060799     13.11706     13.11706     13.11706 
  660000   -1.6735128   0.45376562   -1.2197472   0.99568533   0.30266099    2245.7218   0.89503518    13.095396    13.095396    13.095396 
  661000   -1.6604964   0.44771402   -1.2127823   0.93124948   0.29862459    2262.8106   0.88827587    13.128529    13.128529    13.128529 
  662000   -1.6612217   0.44829616   -1.2129255   0.98328631   0.29901287    2252.4827   0.89234871    13.108525    13.108525    13.108525 
  663000   -1.6659454   0.44832702   -1.2176184    1.0222756   0.29903345    2243.4034   0.89596014    13.090888    13.090888    13.090888 
  664000   -1.6582455   0.45833389   -1.1999117   0.93106804   0.30570802    2269.6013   0.88561809    13.141649    13.141649    13.141649 
  665000   -1.6623584   0.46116144    -1.201197    1.0401041   0.30759399    2245.6535   0.89506241    13.095264    13.095264    13.095264 
  666000   -1.6678752   0.44412334   -1.2237519   0.96498506    0.2962296    2251.7733   0.89262982    13.107149    13.107149    13.107149 
  667000   -1.6765169   0.44232277   -1.2341941    1.0327819   0.29502863    2234.7502   0.89942938    13.074036    13.074036    13.074036 
  668000   -1.6748755   0.44568908   -1.2291864    1.0042846   0.29727395    2245.0563   0.89530048    13.094103    13.094103    13.094103 
  669000   -1.6645051   0.43931618    -1.225189    1.0766813   0.29302323    2237.5601    0.8982999    13.079513    13.079513    13.079513 
  670000   -1.6663788   0.45934633   -1.2070324   0.99117278   0.30638332    2249.9667   0.89334655    13.103642    13.103642    13.103642 
  671000   -1.6755935   0.45467891   -1.2209146   0.90464421   0.30327015    2258.4101   0.89000663    13.120013    13.120013    13.120013 
  672000    -1.651863   0.45099703   -1.2008659    1.0298429   0.30081435    2254.2713   0.89164067    13.111994    13.111994    13.111994 
  673000    -1.669891   0.43843615   -1.2314548   0.98579465   0.29243626    2243.8913    0.8957653    13.091838    13.091838    13.091838 
  674000   -1.6722574   0.45905074   -1.2132066   0.95144586   0.30618616    2251.9181   0.89257243    13.107429    13.107429    13.107429 
  675000   -1.6582087   0.45278209   -1.2054266   0.93728089   0.30200498    2266.6236   0.88678154    13.135899    13.135899    13.135899 
  676000   -1.6630696   0.45277482   -1.2102947    0.9579397   0.30200013    2254.9401   0.89137622     13.11329     13.11329     13.11329 
  677000    -1.667898   0.45662689   -1.2112711    1.0221875   0.30456945    2243.1708   0.89605301    13.090436    13.090436    13.090436 
  678000   -1.6608752   0.45346638   -1.2074089   0.97260596    0.3024614     2260.083   0.88934788    13.123252    13.123252    13.123252 
  679000   -1.6695613   0.44836756   -1.2211937    1.0096737   0.29906049    2240.2716   0.89721263    13.084794    13.084794    13.084794 
  680000   -1.6725309   0.44389449   -1.2286364   0.97000297   0.29607696    2247.2816   0.89441393    13.098428    13.098428    13.098428 
  681000   -1.6660915   0.44695152     -1.21914    1.0586761     0.298116    2236.1191   0.89887878    13.076705    13.076705    13.076705 
  682000   -1.6674404   0.44526689   -1.2221735    0.9855611   0.29699235    2250.2945   0.89321643    13.104279    13.104279    13.104279 
  683000    -1.648319   0.45755597   -1.1907631    1.0838898   0.30518915    2248.5611   0.89390499    13.100913    13.100913    13.100913 
  684000   -1.6611002   0.43981011   -1.2212901    1.0134731   0.29335269    2247.6524   0.89426637    13.099148    13.099148    13.099148 
  685000   -1.6597985   0.44867934   -1.2111192    1.0484695   0.29926845    2245.7035   0.89504246    13.095361    13.095361    13.095361 
  686000    -1.676038   0.44830671   -1.2277313   0.95711226   0.29901991    2246.5126   0.89472009    13.096934    13.096934    13.096934 
  687000   -1.6715094   0.45942413   -1.2120853    0.9571406   0.30643521    2251.3618   0.89279297     13.10635     13.10635     13.10635 
  688000   -1.6740925   0.43874928   -1.2353432   0.98729754   0.29264512    2242.7726   0.89621212    13.089661    13.089661    13.089661 
  689000    -1.664825   0.45398494   -1.2108401    1.0659432   0.30280728    2241.1047    0.8968791    13.086416    13.086416    13.086416 
  690000    -1.656291   0.44068629   -1.2156047    1.0030554    0.2939371    2254.6311   0.89149839    13.112691    13.112691    13.112691 
  691000     -1.66308   0.44242139   -1.2206586    1.0625813   0.29509441    2239.6994   0.89744186     13.08368     13.08368     13.08368 
  692000   -1.6694747   0.44094091   -1.2285338   0.90291422   0.29410693     2260.814   0.88906031    13.124667    13.124667    13.124667 
  693000   -1.6619609   0.44969526   -1.2122656    1.0793163   0.29994607    2238.5878   0.89788749    13.081515    13.081515    13.081515 
  694000   -1.6714174   0.44983765   -1.2215797   0.93098257   0.30004104    2255.1118   0.89130837    13.113623    13.113623    13.113623 
  695000   -1.6693098   0.47339654   -1.1959133    0.9915895   0.31575478    2248.0159    0.8941218    13.099854    13.099854    13.099854 
  696000   -1.6479962   0.43969001   -1.2083062   0.98651711   0.29327258    2263.2972   0.88808489     13.12947     13.12947     13.12947 
  697000    -1.659287   0.45033113   -1.2089558   0.97552816   0.30037019    2257.1651   0.89049754    13.117602    13.117602    13.117602 
  698000   -1.6837337   0.45317135   -1.2305623   0.98389337   0.30226462    2238.6451    0.8978645    13.081627    13.081627    13.081627 
  699000   -1.6812662   0.44619489   -1.2350713   0.97643708   0.29761132    2240.1253   0.89727126    13.084509    13.084509    13.084509 
  700000   -1.6648352   0.44984529   -1.2149899   0.98314809   0.30004614     2251.125   0.89288687    13.105891    13.105891    13.105891 
  701000   -1.6693667   0.44675658   -1.2226101    1.0148228   0.29798597    2240.6037   0.89707967     13.08544     13.08544     13.08544 
  702000   -1.6621169   0.45337425   -1.2087426   0.93376196   0.30239995     2263.837   0.88787313    13.130514    13.130514    13.130514 
  703000   -1.6578126   0.45759287   -1.2002198   0.96682706   0.30521376    2263.1911    0.8881265    13.129265    13.129265    13.129265 
  704000   -1.6742508   0.44792854   -1.2263222    1.0182661   0.29876767    2239.7055   0.89743942    13.083692    13.083692    13.083692 
  705000   -1.6664358   0.44562371   -1.2208121    1.0321786   0.29723035    2240.6748   0.89705119    13.085579    13.085579    13.085579 
  706000   -1.6556496   0.45253651   -1.2031131    1.0760803   0.30184118    2245.0036   0.89532152       13.094       13.094       13.094 
  707000   -1.6843367   0.44622245   -1.2381142   0.99470427   0.29762971    2233.2962   0.90001498    13.071199    13.071199    13.071199 
  708000   -1.6689744   0.44438291   -1.2245915   0.84333623   0.29640274     2271.251   0.88497486    13.144832    13.144832    13.144832 
  709000   -1.6607641   0.44996145   -1.2108027   0.98212006   0.30012362    2257.4107   0.89040066    13.118078    13.118078    13.118078 
  710000   -1.6700906   0.45308415   -1.2170065    1.0460863   0.30220645    2239.3985   0.89756247    13.083094    13.083094    13.083094 
  711000    -1.669109   0.44901551   -1.2200934   0.99190532   0.29949268    2245.6008   0.89508339    13.095161    13.095161    13.095161 
  712000   -1.6614308   0.44790362   -1.2135272    1.0149913   0.29875105    2247.2956   0.89440838    13.098455    13.098455    13.098455 
  713000   -1.6824422   0.46492185   -1.2175204    1.0143926   0.31010218    2232.3504   0.90039627    13.069354    13.069354    13.069354 
  714000   -1.6708297   0.45497424   -1.2158554    1.0004372   0.30346714    2246.1842   0.89485091    13.096295    13.096295    13.096295 
  715000   -1.6613415   0.46377311   -1.1975684    1.0979428   0.30933597    2237.9572   0.89814049    13.080287    13.080287    13.080287 
  716000   -1.6773512   0.45073472   -1.2266165   0.93093252   0.30063939    2253.2105   0.89206048    13.109936    13.109936    13.109936 
  717000   -1.6555951   0.45100909    -1.204586     1.037086   0.30082239    2250.2727   0.89322507    13.104236    13.104236    13.104236 
  718000   -1.6671336   0.44067014   -1.2264635   0.93695632   0.29392633    2259.2733   0.88966659    13.121685    13.121685    13.121685 
  719000   -1.6719362   0.45275335   -1.2191828     1.068453   0.30198581    2234.1663   0.89966445    13.072897    13.072897    13.072897 
  720000   -1.6680867   0.44458252   -1.2235042   0.97274435   0.29653588    2250.8126   0.89301081    13.105284    13.105284    13.105284 
  721000   -1.6800773   0.45747502   -1.2226023    1.0182766   0.30513515    2235.5972   0.89908863    13.075687    13.075687    13.075687 
  722000   -1.6676505   0.43575142   -1.2318991   0.97172832   0.29064555    2249.2338   0.89363766    13.102219    13.102219    13.102219 
  723000    -1.662198   0.44978517   -1.2124129   0.98773187   0.30000603    2254.3169   0.89162264    13.112082    13.112082    13.112082 
  724000   -1.6691533   0.45326031    -1.215893    1.0157077   0.30232395    2242.5068   0.89631834    13.089144    13.089144    13.089144 
  725000   -1.6573387   0.45066785   -1.2066708      1.04294   0.30059479     2247.634    0.8942737    13.099112    13.099112    13.099112 
  726000   -1.6690174   0.44436189   -1.2246555   0.94809498   0.29638871    2256.2419   0.89086191    13.115813    13.115813    13.115813 
  727000   -1.6595685   0.43508074   -1.2244877    1.0671042    0.2901982    2242.4493   0.89634133    13.089032    13.089032    13.089032 
  728000   -1.6713007   0.45210399   -1.2191968    1.0249869   0.30155269    2241.9135   0.89655555     13.08799     13.08799     13.08799 
  729000   -1.6653697   0.44476244   -1.2206072   0.98252748   0.29665588    2248.4416   0.89395249    13.100681    13.100681    13.100681 
  730000   -1.6655278   0.45957266   -1.2059551   0.99211152   0.30653428    2250.7151   0.89304948    13.105095    13.105095    13.105095 
  731000   -1.6661271   0.44716636   -1.2189608   0.97477225    0.2982593    2251.6011   0.89269809    13.106814    13.106814    13.106814 
  732000   -1.6668933   0.43683239   -1.2300609    1.0058541   0.29136655    2241.4757   0.89673068    13.087138    13.087138    13.087138 
  733000   -1.6669033    0.4681218   -1.1987815     1.081524   0.31223654    2235.7055   0.89904508    13.075898    13.075898    13.075898 
  734000   -1.6635554   0.43617737   -1.2273781    1.0583455   0.29092965    2238.4121   0.89795798    13.081173    13.081173    13.081173 
  735000   -1.6668736   0.43808855    -1.228785    1.0325737   0.29220441    2241.2641   0.89681532    13.086726    13.086726    13.086726 
  736000   -1.6440773   0.44494815   -1.1991291    1.0345805   0.29677975    2261.1469   0.88892943    13.125311    13.125311    13.125311 
  737000   -1.6742821   0.44284923   -1.2314329   0.95672212   0.29537977    2247.3979   0.89436764    13.098654    13.098654    13.098654 
  738000   -1.6636149   0.44836687   -1.2152481    1.0591762   0.29906003    2238.0748   0.89809331    13.080516    13.080516    13.080516 
  739000   -1.6730606   0.45585437   -1.2172063    1.0407451   0.30405418    2235.0591   0.89930506    13.074638    13.074638    13.074638 
  740000   -1.6713359   0.45420906   -1.2171268   0.96029391   0.30295676    2249.6863   0.89345791    13.103098    13.103098    13.103098 
  741000   -1.6760836   0.45003773   -1.2260458    1.0441992   0.30017449    2236.6181   0.89867822    13.077677    13.077677    13.077677 
  742000   -1.6695879   0.44704651   -1.2225414   0.95244534   0.29817935    2251.3575   0.89279468    13.106342    13.106342    13.106342 
  743000   -1.6744362   0.44713619      -1.2273   0.96921522   0.29823917    2246.2483    0.8948254     13.09642     13.09642     13.09642 
  744000   -1.6603285   0.43661061   -1.2237179    1.0630193   0.29121863     2243.446   0.89594311    13.090971    13.090971    13.090971 
  745000   -1.6594106   0.44645526   -1.2129553    1.1136726   0.29778499    2238.4395   0.89794699    13.081226    13.081226    13.081226 
  746000   -1.6765353   0.44325139   -1.2332839    1.0215034   0.29564802    2237.0535   0.89850331    13.078526    13.078526    13.078526 
  747000    -1.654322   0.44872743   -1.2055946    1.0956875   0.29930053    2240.6234   0.89707177    13.085479    13.085479    13.085479 
  748000   -1.6744353   0.45425083   -1.2201844   0.96710438   0.30298463    2243.9056   0.89575962    13.091865    13.091865    13.091865 
  749000   -1.6670314   0.44559217   -1.2214392    1.0011514   0.29720931    2244.9763    0.8953324    13.093947    13.093947    13.093947 
  750000   -1.6745105   0.45496699   -1.2195435   0.96967095    0.3034623    2248.2226   0.89403957    13.100256    13.100256    13.100256 
  751000   -1.6647527   0.44139927   -1.2233534    1.0563774   0.29441265    2241.8436   0.89658351    13.087854    13.087854    13.087854 
  752000   -1.6698638   0.45980977    -1.210054   0.99482875   0.30669243    2247.3136    0.8944012     13.09849     13.09849     13.09849 
  753000   -1.6705824   0.44309112   -1.2274913   0.96755481   0.29554112    2247.0668   0.89449945     13.09801     13.09801     13.09801 
  754000     -1.65412   0.45097903   -1.2031409   0.88085604   0.30080234    2276.3323   0.88299936    13.154628    13.154628    13.154628 
  755000   -1.6785892   0.45000294   -1.2285862    1.0490205   0.30015129    2230.5563   0.90112051    13.065852    13.065852    13.065852 
  756000   -1.6660696   0.43904024   -1.2270294   0.99142408   0.29283919    2249.1821   0.89365818    13.102119    13.102119    13.102119 
  757000   -1.6706237   0.45703207   -1.2135917    1.0149813    0.3048397    2239.3757    0.8975716     13.08305     13.08305     13.08305 
  758000   -1.6737401    0.4497768   -1.2239633   0.93101235   0.30000046    2253.5385   0.89193063    13.110573    13.110573    13.110573 
  759000   -1.6663188   0.46238267   -1.2039361   0.98682909   0.30840855    2251.1451   0.89287891     13.10593     13.10593     13.10593 
  760000   -1.6777956   0.43425944   -1.2435361    1.0093116    0.2896504    2237.5811   0.89829148    13.079554    13.079554    13.079554 
  761000   -1.6555269   0.45383673   -1.2016902    1.0393332   0.30270842    2251.8092   0.89261558    13.107218    13.107218    13.107218 
  762000   -1.6645882   0.45854246   -1.2060458   0.96771186   0.30584713    2251.6373   0.89268374    13.106885    13.106885    13.106885 
  763000   -1.6637745   0.45535108   -1.2084234   0.98568032   0.30371849    2254.0821   0.89171553    13.111627    13.111627    13.111627 
  764000   -1.6740429   0.44496718   -1.2290757    1.0457675   0.29679245    2234.8769   0.89937838    13.074283    13.074283    13.074283 
  765000   -1.6701053   0.46238702   -1.2077183   0.96302117   0.30841145     2251.432   0.89276513    13.106486    13.106486    13.106486 
  766000   -1.6709466   0.43144552   -1.2395011   0.98639994   0.28777352    2246.7627   0.89462051    13.097419    13.097419    13.097419 
  767000   -1.6808631   0.45193426   -1.2289288     1.053513   0.30143948    2229.9387   0.90137007    13.064646    13.064646    13.064646 
  768000    -1.672128   0.44592212   -1.2262059   0.99070774   0.29742939    2242.4647    0.8963352    13.089062    13.089062    13.089062 
  769000   -1.6671764   0.44557678   -1.2215997   0.87677143   0.29719904    2266.6506   0.88677099    13.135951    13.135951    13.135951 
  770000   -1.6805674   0.46957845   -1.2109889   0.94811227   0.31320812    2248.8443   0.89379241    13.101463    13.101463    13.101463 
  771000   -1.6734609   0.44955461   -1.2239063   0.93385707   0.29985225    2252.4195   0.89237373    13.108402    13.108402    13.108402 
  772000   -1.6664138    0.4442538     -1.22216    1.0267102   0.29631662    2241.3497   0.89678109    13.086893    13.086893    13.086893 
  773000   -1.6603606   0.44654259    -1.213818    1.0145169   0.29784324     2249.684   0.89345881    13.103094    13.103094    13.103094 
  774000   -1.6567196   0.45951289   -1.1972067    1.0218988   0.30649441     2255.809   0.89103289    13.114974    13.114974    13.114974 
  775000   -1.6428529    0.4524973   -1.1903556    1.0782891   0.30181503    2253.8541   0.89180573    13.111185    13.111185    13.111185 
  776000   -1.6613908    0.4555525   -1.2058383   0.97190866   0.30385284    2259.5539   0.88955611    13.122228    13.122228    13.122228 
  777000   -1.6687213   0.45195137   -1.2167699    1.0427105   0.30145089    2238.6608   0.89785823    13.081657    13.081657    13.081657 
  778000   -1.6729576   0.45141883   -1.2215388    1.0605667   0.30109568    2231.5921   0.90070226    13.067874    13.067874    13.067874 
  779000   -1.6688881   0.45100895   -1.2178792    1.0428229    0.3008223    2237.7496   0.89822381    13.079882    13.079882    13.079882 
  780000   -1.6633006   0.45502841   -1.2082721   0.99989293   0.30350327     2252.535   0.89232799    13.108626    13.108626    13.108626 
  781000   -1.6777087   0.45807442   -1.2196343   0.94738582   0.30553495    2246.3489   0.89478529    13.096615    13.096615    13.096615 
  782000   -1.6776515   0.45751951    -1.220132    0.9864812   0.30516483    2238.9625   0.89773722    13.082245    13.082245    13.082245 
  783000   -1.6748734   0.45431586   -1.2205575   0.90973197     0.303028    2255.1814   0.89128084    13.113758    13.113758    13.113758 
  784000   -1.6690845   0.45892426   -1.2101603    1.0751678   0.30610179    2236.2539   0.89882461    13.076967    13.076967    13.076967 
  785000   -1.6712216   0.43796978   -1.2332518    1.0260971   0.29212519    2241.8719    0.8965722    13.087909    13.087909    13.087909 
  786000   -1.6813497   0.45252354   -1.2288261   0.97093149   0.30183252    2243.1295   0.89606953    13.090356    13.090356    13.090356 
  787000   -1.6766754   0.44436398   -1.2323114   0.95126745   0.29639011    2249.4668   0.89354509    13.102672    13.102672    13.102672 
  788000   -1.6622654   0.46274134   -1.1995241     1.016044   0.30864778    2251.0883   0.89290145    13.105819    13.105819    13.105819 
  789000   -1.6662245   0.45731038   -1.2089142   0.99799424   0.30502534    2251.8856   0.89258532    13.107366    13.107366    13.107366 
  790000    -1.664484   0.44629256   -1.2181915   0.90806143   0.29767647    2262.5052   0.88839576    13.127938    13.127938    13.127938 
  791000   -1.6593484   0.45196346    -1.207385   0.95057364   0.30145895     2258.924   0.88980418    13.121008    13.121008    13.121008 
  792000   -1.6712865   0.45880917   -1.2124773    1.0411345   0.30602503    2236.7274   0.89863433     13.07789     13.07789     13.07789 
  793000   -1.6796172   0.44268879   -1.2369284   0.89005734   0.29527276     2255.999   0.89095786    13.115342    13.115342    13.115342 
  794000   -1.6644734   0.46490318   -1.1995702    1.0213162   0.31008973    2249.2213   0.89364263    13.102195    13.102195    13.102195 
  795000   -1.6622634   0.44543298   -1.2168304   0.96578829   0.29710313    2252.9951   0.89214573    13.109519    13.109519    13.109519 
  796000   -1.6745136   0.44937996   -1.2251336    1.0006899   0.29973576    2242.0505   0.89650078    13.088256    13.088256    13.088256 
  797000   -1.6717443   0.44380144   -1.2279428    1.0401309    0.2960149    2239.1479    0.8976629    13.082606    13.082606    13.082606 
  798000   -1.6469068   0.44516487    -1.201742   0.99114272    0.2969243    2267.8827   0.88628923    13.138331    13.138331    13.138331 
  799000   -1.6710663   0.44501164   -1.2260547   0.95198238    0.2968221    2252.7912   0.89222649    13.109123    13.109123    13.109123 
  800000   -1.6764395   0.44612807   -1.2303115    1.0641324   0.29756676    2230.0726   0.90131594    13.064907    13.064907    13.064907 
  801000   -1.6711876   0.44326777   -1.2279198    1.0170212   0.29565894    2242.6634   0.89625577    13.089449    13.089449    13.089449 
  802000   -1.6747376   0.45558581   -1.2191518   0.95700635   0.30387506    2249.9921   0.89333645    13.103692    13.103692    13.103692 
  803000   -1.6604071   0.44449741   -1.2159097   0.91178931   0.29647911    2265.7334   0.88712995    13.134179    13.134179    13.134179 
  804000   -1.6737423   0.44638571   -1.2273566    0.9787432    0.2977386    2243.3326   0.89598841    13.090751    13.090751    13.090751 
  805000   -1.6719011   0.45485371   -1.2170474   0.98855382   0.30338675    2246.6554   0.89466323    13.097211    13.097211    13.097211 
  806000   -1.6806406    0.4478238   -1.2328168    0.9913514   0.29869781    2238.5366   0.89790804    13.081415    13.081415    13.081415 
  807000   -1.6752618    0.4454702   -1.2297916    1.1196554   0.29712796    2223.5175   0.90397309    13.052094    13.052094    13.052094 
  808000    -1.667003   0.46112279   -1.2058802   0.93953696   0.30756821    2258.9465   0.88979531    13.121052    13.121052    13.121052 
  809000    -1.664874   0.43883691   -1.2260371    1.0115385   0.29270357    2244.2081   0.89563888    13.092453    13.092453    13.092453 
  810000   -1.6738808   0.44318345   -1.2306973   0.97558403    0.2956027    2242.0601   0.89649692    13.088275    13.088275    13.088275 
  811000   -1.6649151   0.45463222   -1.2102829    1.0343373   0.30323901    2246.1403   0.89486841     13.09621     13.09621     13.09621 
  812000   -1.6545053    0.4424462   -1.2120591    1.0290152   0.29511096    2253.2212   0.89205622    13.109957    13.109957    13.109957 
  813000   -1.6666413   0.45071024    -1.215931    1.0105867   0.30062305     2248.751   0.89382949    13.101282    13.101282    13.101282 
  814000   -1.6763917   0.45522685   -1.2211648   0.99770396   0.30363563    2240.7319   0.89702832     13.08569     13.08569     13.08569 
  815000   -1.6606487   0.44206123   -1.2185875     1.050484   0.29485418    2244.1052   0.89567992    13.092254    13.092254    13.092254 
  816000   -1.6638492   0.45365599   -1.2101933   0.90814133   0.30258787     2262.637   0.88834401    13.128193    13.128193    13.128193 
  817000   -1.6572368   0.44886655   -1.2083702    1.0339787   0.29939332    2248.8708   0.89378191    13.101514    13.101514    13.101514 
  818000   -1.6884946   0.44378429   -1.2447103   0.85774215   0.29600346    2253.3171   0.89201825    13.110143    13.110143    13.110143 
  819000   -1.6499843   0.45755311   -1.1924312    1.0636466   0.30518724    2253.7629   0.89184184    13.111008    13.111008    13.111008 
  820000   -1.6625935   0.45907903   -1.2035145    0.9664091   0.30620503    2258.1675   0.89010225    13.119543    13.119543    13.119543 
  821000    -1.659604   0.44600798    -1.213596    1.0029663   0.29748666    2253.7473   0.89184798    13.110978    13.110978    13.110978 
  822000   -1.6656809   0.44410889    -1.221572    1.0417386   0.29621996    2243.5984   0.89588226    13.091268    13.091268    13.091268 
  823000   -1.6696101   0.45913147   -1.2104786   0.94848143   0.30624001    2254.3901   0.89159369    13.112224    13.112224    13.112224 
  824000   -1.6716775   0.45120011   -1.2204773   0.98557536    0.3009498    2247.6748   0.89425748    13.099192    13.099192    13.099192 
  825000   -1.6626114   0.45704533   -1.2055661    0.9541189   0.30484855    2261.9551   0.88861182    13.126874    13.126874    13.126874 
  826000   -1.6541372   0.45540213    -1.198735    1.0231884   0.30375254    2253.5104   0.89194176    13.110518    13.110518    13.110518 
  827000   -1.6750908    0.4536654   -1.2214254   0.97213024   0.30259414    2245.0345   0.89530918     13.09406     13.09406     13.09406 
  828000   -1.6659764   0.44638413   -1.2195922   0.96537323   0.29773755    2253.8339   0.89181372    13.111145    13.111145    13.111145 
  829000   -1.6779662   0.45974704   -1.2182192    1.0592945   0.30665059    2231.7979   0.90061918    13.068276    13.068276    13.068276 
  830000   -1.6432733   0.46090164   -1.1823716    1.0682527   0.30742071    2255.3964   0.89119588    13.114175    13.114175    13.114175 
  831000   -1.6764096   0.45041168   -1.2259979   0.98033017   0.30042392    2238.6155   0.89787639    13.081569    13.081569    13.081569 
  832000   -1.6695508   0.45015619   -1.2193946   0.98921081    0.3002535    2245.7889   0.89500844    13.095527    13.095527    13.095527 
  833000   -1.6676204   0.46101859   -1.2066018     1.057509   0.30749871     2238.584   0.89788901    13.081508    13.081508    13.081508 
  834000   -1.6813462   0.44667923    -1.234667   0.99381676   0.29793438    2236.8762   0.89857454     13.07818     13.07818     13.07818 
  835000   -1.6581986   0.44547179   -1.2127268    1.0253442   0.29712902    2249.7546    0.8934308     13.10323     13.10323     13.10323 
  836000   -1.6592871   0.45411751   -1.2051695    1.0538088    0.3028957    2245.4513   0.89514297    13.094871    13.094871    13.094871 
  837000   -1.6700089   0.44795928   -1.2220497   0.96198231   0.29878817    2250.3652   0.89318838    13.104416    13.104416    13.104416 
  838000   -1.6722501   0.44925967   -1.2229904   0.93498727   0.29965553    2254.3489   0.89160999    13.112144    13.112144    13.112144 
  839000    -1.672997    0.4440377   -1.2289593    1.0163734   0.29617248    2240.6995    0.8970413    13.085627    13.085627    13.085627 
  840000    -1.660688   0.45707078   -1.2036172   0.97904893   0.30486553    2255.6353   0.89110151    13.114638    13.114638    13.114638 
  841000   -1.6583027   0.44189973    -1.216403    1.0138116   0.29474646    2250.5621   0.89311022    13.104798    13.104798    13.104798 
  842000   -1.6647778   0.45712382    -1.207654   0.96038569    0.3049009    2254.7092   0.89146752    13.112842    13.112842    13.112842 
  843000   -1.6549766   0.46129441   -1.1936822    1.0253399   0.30768269     2255.832   0.89102379    13.115019    13.115019    13.115019 
  844000   -1.6545905   0.44978961   -1.2048009    1.1100673     0.300009    2237.6539   0.89826225    13.079696    13.079696    13.079696 
  845000    -1.663209   0.43662481   -1.2265842    1.0101508    0.2912281    2250.4128   0.89316947    13.104508    13.104508    13.104508 
  846000   -1.6584742   0.44821451   -1.2102597    1.0494141   0.29895841    2248.1666   0.89406184    13.100147    13.100147    13.100147 
  847000   -1.6581809   0.45708993    -1.201091   0.98981153    0.3048783    2256.4441   0.89078211    13.116205    13.116205    13.116205 
  848000   -1.6592635   0.44240408   -1.2168594    1.0494016   0.29508286    2245.3672   0.89517651    13.094707    13.094707    13.094707 
  849000     -1.66247   0.43563372   -1.2268362   0.91040992   0.29056704    2267.6554   0.88637807    13.137892    13.137892    13.137892 
  850000   -1.6421886   0.46148459    -1.180704    1.0564769   0.30780954    2260.9618   0.88900221    13.124952    13.124952    13.124952 
  851000   -1.6656138   0.43428985    -1.231324    1.0488065   0.28967068    2240.4841   0.89712753    13.085208    13.085208    13.085208 
  852000   -1.6567394   0.44241645    -1.214323    1.0331146   0.29509111    2251.3802   0.89278568    13.106386    13.106386    13.106386 
  853000   -1.6788511   0.46748638   -1.2113647    0.9360705   0.31181272    2250.5203   0.89312682    13.104717    13.104717    13.104717 
  854000   -1.6802411   0.44872408    -1.231517    1.0130976   0.29929829    2236.4888   0.89873019    13.077425    13.077425    13.077425 
  855000   -1.6611613   0.44478582   -1.2163755   0.99223925   0.29667147    2252.7883   0.89222766    13.109118    13.109118    13.109118 
  856000   -1.6695285   0.46345244   -1.2060761   0.94972946   0.30912208    2252.6695   0.89227472    13.108887    13.108887    13.108887 
  857000   -1.6699515   0.46364961   -1.2063019   0.90536216    0.3092536    2263.9315   0.88783604    13.130696    13.130696    13.130696 
  858000    -1.676975   0.46007201    -1.216903   0.97551852   0.30686734    2245.7676   0.89501691    13.095486    13.095486    13.095486 
  859000   -1.6617842   0.45335048   -1.2084337    1.0349055   0.30238409    2245.8867   0.89496946    13.095717    13.095717    13.095717 
  860000   -1.6732632   0.45404734   -1.2192159     1.020122    0.3028489     2240.912   0.89695624    13.086041    13.086041    13.086041 
  861000   -1.6699102    0.4460873   -1.2238229   0.93550349   0.29753956    2253.8805   0.89179527    13.111236    13.111236    13.111236 
  862000   -1.6644558    0.4393487   -1.2251071   0.96661974   0.29304493    2255.8029   0.89103528    13.114962    13.114962    13.114962 
  863000   -1.6701605    0.4480651   -1.2220954    1.1763222   0.29885875    2219.7135   0.90552226    13.044646    13.044646    13.044646 
  864000   -1.6792094   0.44226877   -1.2369406   0.99470663   0.29499261    2237.5746   0.89829407    13.079541    13.079541    13.079541 
  865000   -1.6593903   0.44583968   -1.2135506   0.94062721    0.2973744    2260.7789   0.88907412    13.124599    13.124599    13.124599 
  866000   -1.6657357   0.45577586   -1.2099599   0.99159619   0.30400182    2249.9859   0.89333894     13.10368     13.10368     13.10368 
  867000   -1.6614284   0.43106083   -1.2303676   0.98107234   0.28751693    2251.1466   0.89287831    13.105933    13.105933    13.105933 
  868000   -1.6686305   0.44906211   -1.2195684   0.90810626   0.29952375    2262.9461   0.88822265    13.128791    13.128791    13.128791 
  869000   -1.6602472   0.45146703   -1.2087802    1.0594899   0.30112783    2239.0402   0.89770607    13.082396    13.082396    13.082396 
  870000   -1.6774251    0.4499705   -1.2274546   0.95459676   0.30012965    2247.3956   0.89436856    13.098649    13.098649    13.098649 
  871000   -1.6648689   0.46915975   -1.1957092    1.0287949   0.31292885    2247.5639   0.89430161    13.098976    13.098976    13.098976 
  872000   -1.6834781   0.45841524   -1.2250629   0.93911039   0.30576228    2243.4636    0.8959361    13.091006    13.091006    13.091006 
  873000   -1.6734041    0.4390833   -1.2343208   0.99217471   0.29286791    2239.7189   0.89743403    13.083718    13.083718    13.083718 
  874000   -1.6757354   0.44091565   -1.2348197    1.0625568   0.29409008     2229.575   0.90151711    13.063936    13.063936    13.063936 
  875000   -1.6774491   0.45574246   -1.2217067    1.0240583   0.30397954    2235.6047   0.89908562    13.075702    13.075702    13.075702 
  876000   -1.6729743   0.43633125   -1.2366431   0.87098594   0.29103229    2262.3463   0.88845816    13.127631    13.127631    13.127631 
  877000   -1.6542003   0.45263273   -1.2015676    1.0208848   0.30190535    2254.8702   0.89140388    13.113155    13.113155    13.113155 
  878000   -1.6626076   0.45317363    -1.209434   0.92842508   0.30226613     2263.525   0.88799549    13.129911    13.129911    13.129911 
  879000   -1.6823823   0.44198169   -1.2404006   0.98572214   0.29480113    2236.2648    0.8988202    13.076989    13.076989    13.076989 
  880000   -1.6837449   0.46145621   -1.2222887   0.98485021   0.30779061    2236.0391   0.89891095    13.076549    13.076549    13.076549 
  881000   -1.6760357   0.44529437   -1.2307414   0.84443863   0.29701068    2264.3987   0.88765287      13.1316      13.1316      13.1316 
  882000   -1.6645331   0.46058007    -1.203953    0.9765212   0.30720622    2255.0044   0.89135079    13.113415    13.113415    13.113415 
  883000   -1.6852576   0.45099093   -1.2342667    1.0351395   0.30081028    2227.7242   0.90226608     13.06032     13.06032     13.06032 
  884000   -1.6775859   0.45540681   -1.2221791   0.92073847   0.30375566    2253.6067   0.89190363    13.110705    13.110705    13.110705 
  885000   -1.6782443   0.44841147   -1.2298328    1.0109154   0.29908978    2237.5167   0.89831731    13.079428    13.079428    13.079428 
  886000   -1.6736175   0.45609435   -1.2175231    1.0178316   0.30421425    2240.0344   0.89730763    13.084332    13.084332    13.084332 
  887000   -1.6565319   0.44539532   -1.2111366   0.98549028   0.29707802    2259.2212   0.88968713    13.121584    13.121584    13.121584 
  888000   -1.6557185   0.44869745   -1.2070211    1.0853691   0.29928053    2242.2772   0.89641015    13.088698    13.088698    13.088698 
  889000   -1.6666509   0.44884973   -1.2178012    1.0218376    0.2993821    2243.9367   0.89574719    13.091926    13.091926    13.091926 
  890000   -1.6733938   0.44872435   -1.2246695   0.98555095   0.29929847    2244.5457   0.89550416     13.09311     13.09311     13.09311 
  891000   -1.6643195   0.45994908   -1.2043704    1.0620608   0.30678535    2239.9638   0.89733592    13.084195    13.084195    13.084195 
  892000   -1.6638873   0.45181655   -1.2120707   0.94584379   0.30136097    2256.2841   0.89084525    13.115895    13.115895    13.115895 
  893000   -1.6597851   0.45716042   -1.2026247    1.0196033   0.30492532    2248.9287    0.8937589    13.101627    13.101627    13.101627 
  894000   -1.6761156   0.45147772   -1.2246379    1.0344633   0.30113497    2237.7905   0.89820742    13.079962    13.079962    13.079962 
  895000   -1.6669303   0.45942076   -1.2075095    1.0371979   0.30643296    2242.4066   0.89635842    13.088949    13.088949    13.088949 
  896000   -1.6564163    0.4439982   -1.2124181   0.97775241   0.29614613     2259.046   0.88975611    13.121244    13.121244    13.121244 
  897000   -1.6613869   0.45388853   -1.2074984   0.98408827   0.30274297    2254.2613   0.89164463    13.111974    13.111974    13.111974 
  898000   -1.6755718   0.46069319   -1.2148786    1.0257205   0.30728167    2239.5985   0.89748228    13.083484    13.083484    13.083484 
  899000   -1.6809237    0.4529644   -1.2279593    0.9610724   0.30212658     2242.051   0.89650056    13.088257    13.088257    13.088257 
  900000   -1.6679191   0.46105019   -1.2068689   0.90604012   0.30751979    2263.7234   0.88791769    13.130294    13.130294    13.130294 
  901000   -1.6653948   0.45185607   -1.2135388    1.0711162   0.30138732    2241.4301   0.89674891    13.087049    13.087049    13.087049 
  902000    -1.670733    0.4534744   -1.2172587     1.051839   0.30246675    2237.8722   0.89817462    13.080121    13.080121    13.080121 
  903000   -1.6856538   0.43627712   -1.2493767     1.015899   0.29099619    2230.3084   0.90122067    13.065368    13.065368    13.065368 
  904000   -1.6584492   0.44066029   -1.2177889   0.96206604   0.29391975    2260.3417   0.88924609    13.123752    13.123752    13.123752 
  905000   -1.6698496   0.43911188   -1.2307377    1.0200257   0.29288697    2240.4098   0.89715728    13.085063    13.085063    13.085063 
  906000   -1.6863445   0.46791426   -1.2184302   0.99036773   0.31209812    2237.7019   0.89824297    13.079789    13.079789    13.079789 
  907000   -1.6721437   0.45797104   -1.2141726   0.97315703     0.305466    2247.7046   0.89424564    13.099249    13.099249    13.099249 
  908000    -1.655358   0.46211593   -1.1932421     1.012243   0.30823063     2255.674   0.89108621    13.114713    13.114713    13.114713 
  909000   -1.6606202   0.44803427   -1.2125859   0.95959649   0.29883819    2258.5131   0.88996607    13.120213    13.120213    13.120213 
  910000   -1.6597079   0.46150189   -1.1982061   0.97690672   0.30782107    2255.1445   0.89129543    13.113686    13.113686    13.113686 
  911000   -1.6765752   0.44548237   -1.2310928   0.96361809   0.29713607    2246.0675   0.89489743    13.096068    13.096068    13.096068 
  912000   -1.6676935   0.44220058   -1.2254929    1.0038352   0.29494713    2243.7446    0.8958239    13.091552    13.091552    13.091552 
  913000   -1.6598671   0.43806211    -1.221805    1.1193907   0.29218678    2232.3338   0.90040298    13.069322    13.069322    13.069322 
  914000   -1.6618438   0.43581046   -1.2260333    1.0033018   0.29068493    2252.6679   0.89227532    13.108884    13.108884    13.108884 
  915000   -1.6590373   0.44448164   -1.2145557    1.0451075   0.29646859    2246.2055   0.89484242    13.096337    13.096337    13.096337 
  916000   -1.6647431   0.46516635   -1.1995767   0.99640539   0.31026526    2251.4851   0.89274408    13.106589    13.106589    13.106589 
  917000   -1.6614708   0.44230987   -1.2191609    1.0260624   0.29502002     2245.076   0.89529264    13.094141    13.094141    13.094141 
  918000   -1.6762558   0.45150979    -1.224746   0.98014426   0.30115636    2242.2329   0.89642783    13.088611    13.088611    13.088611 
  919000   -1.6643705   0.44807018   -1.2163003    1.0361052   0.29886214    2245.0165   0.89531636    13.094025    13.094025    13.094025 
  920000   -1.6644922   0.45580149   -1.2086907    1.0523655   0.30401891    2244.0397   0.89570609    13.092126    13.092126    13.092126 
  921000   -1.6735731   0.44956273   -1.2240103   0.98259626   0.29985767    2243.7105    0.8958375    13.091486    13.091486    13.091486 
  922000   -1.6592696     0.438759   -1.2205106    1.0457804    0.2926516    2247.1339   0.89447273    13.098141    13.098141    13.098141 
  923000   -1.6621104   0.45937954   -1.2027309    1.0418409   0.30640547    2250.4916   0.89313818    13.104661    13.104661    13.104661 
  924000   -1.6716553   0.45578469   -1.2158706   0.99354992   0.30400771    2246.7634   0.89462025    13.097421    13.097421    13.097421 
  925000   -1.6735833    0.4500862   -1.2234971    1.0485162   0.30020682    2234.9531   0.89934774    13.074431    13.074431    13.074431 
  926000   -1.6594798   0.44168064   -1.2177992   0.99126397   0.29460033    2255.3752   0.89120425    13.114134    13.114134    13.114134 
  927000   -1.6651712   0.44346181   -1.2217094   0.99063917   0.29578837    2249.5031   0.89353066    13.102742    13.102742    13.102742 
  928000    -1.655771   0.46412925   -1.1916418    1.0347792   0.30957352    2251.9852   0.89254582     13.10756     13.10756     13.10756 
  929000   -1.6693475   0.45956325   -1.2097842   0.97342834     0.306528    2248.6469   0.89387088     13.10108     13.10108     13.10108 
  930000   -1.6803234   0.44144972   -1.2388737    1.0007687   0.29444631    2236.2586   0.89882269    13.076977    13.076977    13.076977 
  931000   -1.6562097   0.46981824   -1.1863914     1.036272   0.31336806    2250.9351    0.8929622    13.105522    13.105522    13.105522 
  932000    -1.662396    0.4624327   -1.1999633   0.98988592   0.30844192    2252.9856   0.89214953      13.1095      13.1095      13.1095 
  933000   -1.6741373   0.45046612   -1.2236712   0.99192974   0.30046023    2244.3472   0.89558336    13.092724    13.092724    13.092724 
  934000   -1.6682631   0.44751913   -1.2207439    1.0300787   0.29849459      2237.18   0.89845253    13.078772    13.078772    13.078772 
  935000   -1.6855506   0.44218615   -1.2433644     1.094386    0.2949375    2217.4153   0.90646079    13.040143    13.040143    13.040143 
  936000   -1.6838649   0.45378235   -1.2300825   0.93896127   0.30267215     2241.351   0.89678055    13.086895    13.086895    13.086895 
  937000   -1.6624789   0.45770029   -1.2047786   0.98157421   0.30528541    2253.6134   0.89190099    13.110718    13.110718    13.110718 
  938000   -1.6633453   0.45307236    -1.210273   0.99537845   0.30219859    2247.1431   0.89446907    13.098159    13.098159    13.098159 
  939000   -1.6690809   0.46003335   -1.2090475   0.96352308   0.30684156      2252.14   0.89248448     13.10786     13.10786     13.10786 
  940000   -1.6685899   0.45509277   -1.2134971   0.99248559    0.3035462    2250.6928   0.89305834    13.105052    13.105052    13.105052 
  941000   -1.6662614    0.4530103   -1.2132512    1.0799117   0.30215719     2236.321   0.89879763    13.077098    13.077098    13.077098 
  942000   -1.6701753   0.45321002   -1.2169653   0.89631818   0.30229041    2262.9941   0.88820382    13.128884    13.128884    13.128884 
  943000   -1.6702298   0.44015824   -1.2300715    1.0191157   0.29358489    2241.0945   0.89688319    13.086396    13.086396    13.086396 
  944000   -1.6781846   0.46240113   -1.2157834   0.96035547   0.30842086    2245.8832   0.89497084     13.09571     13.09571     13.09571 
  945000     -1.65941   0.44146375   -1.2179463   0.99764025   0.29445566    2253.9499   0.89176782     13.11137     13.11137     13.11137 
  946000   -1.6687062   0.44392368   -1.2247825   0.98512328   0.29609643    2247.5457   0.89430883    13.098941    13.098941    13.098941 
  947000   -1.6709864   0.45192031   -1.2190661   0.98274343   0.30143017    2248.5377   0.89391432    13.100868    13.100868    13.100868 
  948000   -1.6598677   0.46609617   -1.1937715    1.1225005   0.31088545    2236.4004   0.89876572    13.077253    13.077253    13.077253 
  949000   -1.6752401   0.43870242   -1.2365377   0.93963194   0.29261386    2248.4492   0.89394947    13.100696    13.100696    13.100696 
  950000    -1.668124   0.44867791   -1.2194461    0.9995121    0.2992675    2246.9498   0.89454601    13.097783    13.097783    13.097783 
  951000   -1.6728129   0.44499898   -1.2278139   0.99994606   0.29681365    2241.3295   0.89678914    13.086853    13.086853    13.086853 
  952000   -1.6563217   0.45304031   -1.2032813    0.9403453   0.30217721    2267.6609   0.88637592    13.137903    13.137903    13.137903 
  953000    -1.664693   0.45130277   -1.2133902   0.93795677   0.30101827    2258.8505   0.88983312    13.120866    13.120866    13.120866 
  954000   -1.6701034   0.43813188   -1.2319715   0.91450835   0.29223331     2256.745   0.89066333    13.116788    13.116788    13.116788 
  955000   -1.6824554   0.46169032    -1.220765     1.006232   0.30794675    2236.3142   0.89880037    13.077085    13.077085    13.077085 
  956000   -1.6643101    0.4499033   -1.2144068   0.96872552   0.30008483     2258.298   0.89005083    13.119796    13.119796    13.119796 
  957000   -1.6581796    0.4652724   -1.1929072    1.0057343     0.310336    2256.4508   0.89077945    13.116218    13.116218    13.116218 
  958000   -1.6688174   0.45036051   -1.2184569   0.98058765   0.30038979    2251.5273   0.89272733    13.106671    13.106671    13.106671 
  959000   -1.6565129   0.43987116   -1.2166417   0.92863201   0.29339341    2267.1448   0.88657769    13.136906    13.136906    13.136906 
  960000   -1.6647277   0.44890571    -1.215822    1.0386337   0.29941944     2244.394   0.89556468    13.092815    13.092815    13.092815 
  961000   -1.6674989   0.44544295    -1.222056   0.93419443   0.29710978    2255.5738   0.89112579    13.114518    13.114518    13.114518 
  962000   -1.6712746   0.44158529   -1.2296893   0.96219646   0.29453673    2247.9704   0.89413987    13.099766    13.099766    13.099766 
  963000   -1.6542108   0.45494355   -1.1992673   0.90588075   0.30344667    2272.5811   0.88445688    13.147398    13.147398    13.147398 
  964000   -1.6646057   0.44885142   -1.2157543    1.0262952   0.29938323    2246.2711   0.89481629    13.096464    13.096464    13.096464 
  965000    -1.666052   0.45888632   -1.2071657   0.96869954   0.30607649      2253.31   0.89202105     13.11013     13.11013     13.11013 
  966000    -1.674326   0.44679231   -1.2275337   0.99033161   0.29800981     2244.497    0.8955236    13.093015    13.093015    13.093015 
  967000    -1.664579   0.45053682   -1.2140421    1.0321031   0.30050739    2239.1123   0.89767716    13.082537    13.082537    13.082537 
  968000   -1.6669181   0.45185337   -1.2150648    1.0064645   0.30138552    2245.5192   0.89511594    13.095003    13.095003    13.095003 
  969000   -1.6586062   0.44552185   -1.2130844    1.0050001   0.29716241    2255.6432   0.89109838    13.114653    13.114653    13.114653 
  970000   -1.6809791   0.45369363   -1.2272855   0.96614877   0.30261297    2239.9698   0.89733352    13.084206    13.084206    13.084206 
  971000   -1.6883732   0.44384746   -1.2445257    0.9685767    0.2960456    2235.3855   0.89917379    13.075274    13.075274    13.075274 
  972000   -1.6756326    0.4514398   -1.2241928    1.0631441   0.30110967    2232.6293    0.9002838    13.069898    13.069898    13.069898 
  973000   -1.6710406   0.44314237   -1.2278982   0.92237942    0.2955753     2256.026   0.89094718    13.115395    13.115395    13.115395 
  974000   -1.6754177   0.45409835   -1.2213194   0.91925659   0.30288292    2255.7885   0.89104098    13.114935    13.114935    13.114935 
  975000   -1.6690723   0.46826822   -1.2008041    1.0868777    0.3123342    2233.3689   0.89998566    13.071341    13.071341    13.071341 
  976000   -1.6660915   0.44387886   -1.2222127    1.0873334   0.29606654    2231.0774   0.90091005    13.066869    13.066869    13.066869 
  977000   -1.6702042    0.4475374   -1.2226668   0.92713782   0.29850678    2259.1492   0.88971547    13.121444    13.121444    13.121444 
  978000   -1.6713762   0.46789622     -1.20348    1.0766651   0.31208608    2235.9733   0.89893739     13.07642     13.07642     13.07642 
  979000    -1.677164   0.45407979   -1.2230842   0.91342417   0.30287054    2251.0088   0.89293297    13.105665    13.105665    13.105665 
  980000   -1.6542072   0.45062123   -1.2035859    1.0811702   0.30056369    2246.4933    0.8947278    13.096896    13.096896    13.096896 
  981000   -1.6708615   0.44982561   -1.2210359   0.96405851   0.30003301    2250.5167   0.89312823     13.10471     13.10471     13.10471 
  982000    -1.662603    0.4542115   -1.2083915   0.98941059   0.30295839     2253.639   0.89189085    13.110768    13.110768    13.110768 
  983000   -1.6758053   0.44613489   -1.2296704   0.97920008   0.29757131    2244.9073    0.8953599    13.093813    13.093813    13.093813 
  984000   -1.6523641   0.45184712    -1.200517    1.0289124   0.30138135    2254.0011   0.89174758     13.11147     13.11147     13.11147 
  985000   -1.6572049   0.42861518   -1.2285897    1.0021503   0.28588568    2252.2317   0.89244813    13.108038    13.108038    13.108038 
  986000   -1.6582549   0.45118682    -1.207068   0.92342693   0.30094094     2265.975   0.88703537    13.134646    13.134646    13.134646 
  987000   -1.6660761   0.45525291   -1.2108232    1.0105464   0.30365301    2249.0052   0.89372849    13.101775    13.101775    13.101775 
  988000   -1.6656738   0.46292896   -1.2027448   0.96503781   0.30877293    2255.9422   0.89098028    13.115232    13.115232    13.115232 
  989000   -1.6702138    0.4510465   -1.2191673    1.0356028   0.30084734      2241.17   0.89685299    13.086543    13.086543    13.086543 
  990000   -1.6715351   0.44558509     -1.22595   0.96511999   0.29720459    2248.0607   0.89410396    13.099941    13.099941    13.099941 
  991000   -1.6737411   0.44955936   -1.2241817    1.0278119   0.29985542    2237.1435   0.89846718    13.078701    13.078701    13.078701 
  992000   -1.6534529   0.44331388    -1.210139    1.0450942    0.2956897    2251.8671   0.89259262    13.107331    13.107331    13.107331 
  993000   -1.6758866   0.44236347   -1.2335231   0.99298071   0.29505577    2239.3257   0.89759162    13.082952    13.082952    13.082952 
  994000   -1.6829305   0.44795547    -1.234975   0.98102673   0.29878563    2236.5336    0.8987122    13.077512    13.077512    13.077512 
  995000   -1.6627574   0.44626304   -1.2164944    1.0133364   0.29765678     2249.798   0.89341356    13.103315    13.103315    13.103315 
  996000   -1.6660983   0.44347123    -1.222627    0.9929481   0.29579465    2250.5495   0.89311522    13.104774    13.104774    13.104774 
  997000    -1.675176   0.45096396    -1.224212   0.97887182   0.30079229    2243.8897   0.89576595    13.091834    13.091834    13.091834 
  998000   -1.6706565   0.45096505   -1.2196915   0.97276469   0.30079302    2245.7852    0.8950099     13.09552     13.09552     13.09552 
  999000   -1.6549988    0.4468955   -1.2081033   0.97055012   0.29807863    2259.8244   0.88944965    13.122751    13.122751    13.122751 
 1000000    -1.684085   0.45184198    -1.232243   0.98767693   0.30137793    2234.2075   0.89964786    13.072977    13.072977    13.072977 
Loop time of 4600.88 on 1 procs for 1000000 steps with 2010 atoms

Performance: 93895.126 tau/day, 217.350 timesteps/s
91.6% CPU use with 1 MPI tasks x 1 OpenMP threads

MPI task timing breakdown:
Section |  min time  |  avg time  |  max time  |%varavg| %total
---------------------------------------------------------------
Pair    | 3721.4     | 3721.4     | 3721.4     |   0.0 | 80.88
Bond    | 1.7586     | 1.7586     | 1.7586     |   0.0 |  0.04
Neigh   | 479.73     | 479.73     | 479.73     |   0.0 | 10.43
Comm    | 52.443     | 52.443     | 52.443     |   0.0 |  1.14
Output  | 68.81      | 68.81      | 68.81      |   0.0 |  1.50
Modify  | 262.4      | 262.4      | 262.4      |   0.0 |  5.70
Other   |            | 14.32      |            |       |  0.31

Nlocal:    2010 ave 2010 max 2010 min
Histogram: 1 0 0 0 0 0 0 0 0 0
Nghost:    5922 ave 5922 max 5922 min
Histogram: 1 0 0 0 0 0 0 0 0 0
Neighs:    206289 ave 206289 max 206289 min
Histogram: 1 0 0 0 0 0 0 0 0 0

Total # of neighbors = 206289
Ave neighs/atom = 102.631
Ave special neighs/atom = 0.0238806
Neighbor list builds = 50000
Dangerous builds not checked
unfix           nptid
unfix           radav
uncompute       radgy
undump          dumpnpt


#Using Nvt to calculate the rdf

compute      rdfnvt1 all rdf 500 1 1 1 2 2 2
fix          rdfnvt1 all ave/time ${Nevery} ${Nrepeat} ${Nfreq} c_rdfnvt1[*] file nvt.rdf1 mode vector
fix          rdfnvt1 all ave/time 100 ${Nrepeat} ${Nfreq} c_rdfnvt1[*] file nvt.rdf1 mode vector
fix          rdfnvt1 all ave/time 100 100 ${Nfreq} c_rdfnvt1[*] file nvt.rdf1 mode vector
fix          rdfnvt1 all ave/time 100 100 100000 c_rdfnvt1[*] file nvt.rdf1 mode vector

compute      msdnvt1 all msd

dump         dumpnvt1 all atom 1000 nvt1.out.dump
thermo       ${N}
thermo       1000
thermo_style custom step pe ke etotal press temp vol c_msdnvt1[4]
restart      50000 restart11nvt.out restart12nvt.out

fix          nvtid1 all nvt temp ${tempext} ${tempext} ${tdamp}
fix          nvtid1 all nvt temp 0.3 ${tempext} ${tdamp}
fix          nvtid1 all nvt temp 0.3 0.3 ${tdamp}
fix          nvtid1 all nvt temp 0.3 0.3 0.5
run          1000000
WARNING: Use special bonds = 0,1,1 with bond style fene (../bond_fene.cpp:188)
Neighbor list info ...
  update every 20 steps, delay 0 steps, check no
  max neighbors/atom: 2000, page size: 100000
  master list distance cutoff = 3.8
  ghost atom cutoff = 3.8
  binsize = 1.9, bins = 7 7 7
  2 neighbor lists, perpetual/occasional/extra = 1 1 0
  (1) pair lj/cut, perpetual
      attributes: half, newton on
      pair build: half/bin/newton
      stencil: half/bin/3d/newton
      bin: standard
  (2) compute rdf, occasional, copy from (1)
      attributes: half, newton on
      pair build: copy
      stencil: none
      bin: none
Per MPI rank memory allocation (min/avg/max) = 6.374 | 6.374 | 6.374 Mbytes
Step PotEng KinEng TotEng Press Temp Volume c_msdnvt1[4] 
 1000000    -1.684085   0.45184198    -1.232243   0.98767693   0.30137793    2234.2075            0 
 1001000   -1.6577825   0.45531224   -1.2024703    1.1316629   0.30369259    2234.2075   0.67234049 
 1002000   -1.6866821   0.44900317    -1.237679   0.96528377   0.29948444    2234.2075    1.3163041 
 1003000   -1.6684059   0.44027801   -1.2281279    1.0673357   0.29366478    2234.2075    1.9294524 
 1004000   -1.6765504   0.45302187   -1.2235285    1.0373453   0.30216491    2234.2075    2.5785637 
 1005000   -1.6709088   0.44738861   -1.2235201    1.0574337   0.29840754    2234.2075    3.1908845 
 1006000   -1.6618245   0.45461075   -1.2072137    1.1143912   0.30322469    2234.2075    3.8453537 
 1007000   -1.6769519   0.45404464   -1.2229073    1.0429249   0.30284709    2234.2075    4.4222452 
 1008000   -1.6714432   0.45177832   -1.2196649    1.0744518   0.30133546    2234.2075    5.0615568 
 1009000   -1.6824248   0.45666928   -1.2257555   0.98166474   0.30459773    2234.2075    5.7049415 
 1010000   -1.6769687    0.4512614   -1.2257073    1.0305046   0.30099068    2234.2075    6.3484122 
 1011000   -1.6744609   0.45039747   -1.2240634    1.0308893   0.30041444    2234.2075    6.9824446 
 1012000   -1.6788467   0.45293155   -1.2259151    1.0470895   0.30210467    2234.2075    7.8369797 
 1013000   -1.6659956   0.45435131   -1.2116443    1.0822797   0.30305164    2234.2075    8.5095383 
 1014000   -1.6841301    0.4456014   -1.2385287   0.97257131   0.29721547    2234.2075    9.0381687 
 1015000   -1.6750386   0.45381054   -1.2212281    1.0614474   0.30269095    2234.2075    9.5742936 
 1016000   -1.6777247   0.45444551   -1.2232792    1.0435608   0.30311448    2234.2075    10.288283 
 1017000   -1.6712403   0.44775245   -1.2234878    1.0388056   0.29865022    2234.2075    10.893923 
 1018000   -1.6862312    0.4463204   -1.2399108   0.99293109   0.29769504    2234.2075    11.608554 
 1019000   -1.6769145   0.44973027   -1.2271843      1.02128   0.29996942    2234.2075    12.116984 
 1020000   -1.6644319   0.45268054   -1.2117513    1.1027365   0.30193725    2234.2075    12.640224 
 1021000   -1.6743981   0.46395398   -1.2104441    1.0430825   0.30945661    2234.2075    13.191884 
 1022000   -1.6703894   0.45177678   -1.2186126    1.0728126   0.30133444    2234.2075    13.750789 
 1023000   -1.6717228   0.44800908   -1.2237138    1.0546232   0.29882139    2234.2075    14.272334 
 1024000   -1.6787824   0.43730449   -1.2414779   0.99771031   0.29168144    2234.2075     14.80978 
 1025000   -1.6814824   0.45136252   -1.2301199   0.99366176   0.30105812    2234.2075    15.305077 
 1026000   -1.6686676   0.45126031   -1.2174073    1.0651099   0.30098995    2234.2075    16.100263 
 1027000   -1.6695587   0.44593817   -1.2236205    1.0768184   0.29744009    2234.2075    16.732227 
 1028000   -1.6771726   0.45766046   -1.2195121    1.0278912   0.30525884    2234.2075     17.27402 
 1029000   -1.6728726   0.44336442   -1.2295082    1.0462025   0.29572341    2234.2075    17.833609 
 1030000   -1.6774782   0.42978574   -1.2476924     1.025243   0.28666645    2234.2075    18.395427 
 1031000   -1.6833597   0.44802574    -1.235334   0.99748944    0.2988325    2234.2075    19.102801 
 1032000   -1.6688387   0.44400664    -1.224832    1.0773776   0.29615177    2234.2075    19.582521 
 1033000   -1.6693744   0.45510435   -1.2142701    1.0656987   0.30355392    2234.2075    20.246325 
 1034000   -1.6803232    0.4586004   -1.2217228    1.0474976   0.30588578    2234.2075    20.722463 
 1035000   -1.6797774   0.44985896   -1.2299184     1.026899   0.30005525    2234.2075    21.339461 
 1036000    -1.679317   0.44907913   -1.2302379    1.0104161   0.29953511    2234.2075    22.138237 
 1037000   -1.6818296   0.44550744   -1.2363221    1.0323592    0.2971528    2234.2075    22.704059 
 1038000   -1.6768273    0.4525097   -1.2243176    1.0459233   0.30182329    2234.2075     23.16038 
 1039000   -1.6638821   0.45162908    -1.212253    1.0702791   0.30123592    2234.2075    24.037704 
 1040000   -1.6729254   0.44480096   -1.2281245    1.0460998   0.29668158    2234.2075    24.734314 
 1041000   -1.6800399   0.45594987     -1.22409    1.0080582   0.30411788    2234.2075    25.107948 
 1042000   -1.6743978   0.43857224   -1.2358255    1.0482803   0.29252703    2234.2075    25.668634 
 1043000   -1.6664242   0.44073565   -1.2256885    1.0777005   0.29397002    2234.2075    26.249829 
 1044000   -1.6905814   0.44412339    -1.246458   0.97695059   0.29622964    2234.2075    26.753775 
 1045000   -1.6905729   0.44862717   -1.2419458   0.96856694   0.29923365    2234.2075    27.298109 
 1046000   -1.6848541   0.44650356   -1.2383506    1.0043233   0.29781721    2234.2075    27.935399 
 1047000   -1.6738212   0.44534868   -1.2284726    1.0449904   0.29704691    2234.2075    28.572004 
 1048000    -1.676868   0.45559213   -1.2212759     1.023227   0.30387927    2234.2075    29.324134 
 1049000   -1.6714475   0.44732511   -1.2241224    1.0747116   0.29836518    2234.2075    30.157878 
 1050000   -1.6816556   0.46088801   -1.2207676    1.0082617   0.30741161    2234.2075    31.005406 
 1051000   -1.6801787   0.44789197   -1.2322868    1.0186285   0.29874327    2234.2075    31.438584 
 1052000   -1.6721855    0.4380241   -1.2341614    1.0500855   0.29216142    2234.2075    31.982972 
 1053000   -1.6652819   0.43297775   -1.2323042      1.07889   0.28879552    2234.2075    32.456483 
 1054000   -1.6841322    0.4444042    -1.239728   0.98730301   0.29641694    2234.2075    33.007866 
 1055000   -1.6708645   0.45170209   -1.2191625     1.074479   0.30128462    2234.2075    33.859466 
 1056000    -1.671268   0.44469472   -1.2265733    1.0564392   0.29661072    2234.2075    34.606089 
 1057000    -1.662723   0.45358604    -1.209137    1.1215621   0.30254121    2234.2075     35.38182 
 1058000    -1.678171   0.44866278   -1.2295082    1.0233894    0.2992574    2234.2075    35.958579 
 1059000   -1.6631554   0.45729427   -1.2058611    1.1043233    0.3050146    2234.2075     36.87514 
 1060000   -1.6723954   0.45202019   -1.2203753    1.0443673   0.30149679    2234.2075    37.479926 
 1061000   -1.6671646   0.46109595   -1.2060686    1.0962973   0.30755031    2234.2075    38.137239 
 1062000   -1.6752896   0.45149626   -1.2237933    1.0439305   0.30114733    2234.2075    38.652995 
 1063000   -1.6775046   0.45146339   -1.2260412    1.0454856   0.30112541    2234.2075    39.033292 
 1064000   -1.6703583   0.44236799   -1.2279903    1.0665349   0.29505879    2234.2075    39.695651 
 1065000   -1.6723129    0.4507012   -1.2216117    1.0694126   0.30061703    2234.2075    40.642073 
 1066000   -1.6714588   0.44951576    -1.221943    1.0473231   0.29982634    2234.2075    41.345788 
 1067000   -1.6822565   0.47108123   -1.2111753    1.0107693   0.31421048    2234.2075    42.046259 
 1068000   -1.6633884   0.47092837     -1.19246    1.1066557   0.31410852    2234.2075    42.416063 
 1069000   -1.6759084   0.45150798   -1.2244004    1.0417705   0.30115515    2234.2075    42.918785 
 1070000   -1.6680907   0.43921546   -1.2288753    1.0610609   0.29295605    2234.2075    43.234944 
 1071000   -1.6647525   0.46773156   -1.1970209      1.10961   0.31197626    2234.2075    43.646713 
 1072000   -1.6704531   0.46191467   -1.2085384    1.0888592    0.3080964    2234.2075    44.205463 
 1073000   -1.6694455    0.4425106   -1.2269349    1.0591463   0.29515391    2234.2075    44.939011 
 1074000    -1.672613   0.45046173   -1.2221513    1.0563403    0.3004573    2234.2075    45.809327 
 1075000   -1.6632884   0.43799753   -1.2252909    1.0685055    0.2921437    2234.2075    46.034748 
 1076000    -1.678474   0.44042323   -1.2380508    1.0205557   0.29376163    2234.2075    46.732461 
 1077000   -1.6725436   0.44781843   -1.2247252    1.0542301   0.29869422    2234.2075    47.086197 
 1078000   -1.6662277   0.44231166   -1.2239161    1.0813866   0.29502122    2234.2075    48.058476 
 1079000   -1.6697835   0.44948196   -1.2203015    1.0712366    0.2998038    2234.2075    48.570774 
 1080000   -1.6744465   0.46880389   -1.2056426    1.0519622    0.3126915    2234.2075    49.187175 
 1081000   -1.6783968   0.44170689   -1.2366899    1.0104111   0.29461784    2234.2075    49.732392 
 1082000   -1.6753045   0.45120709   -1.2240974     1.049582   0.30095445    2234.2075    50.434907 
 1083000   -1.6684316    0.4553251   -1.2131065    1.0768163   0.30370116    2234.2075    50.942134 
 1084000   -1.6791492   0.44573849   -1.2334107    1.0179867   0.29730691    2234.2075    51.663371 
 1085000    -1.668335   0.45526399    -1.213071     1.068048    0.3036604    2234.2075    52.251664 
 1086000   -1.6715848   0.45517059   -1.2164142    1.0472017   0.30359811    2234.2075    53.042745 
 1087000    -1.671371   0.45208198    -1.219289    1.0668013     0.301538    2234.2075    53.756934 
 1088000   -1.6656345   0.44737335   -1.2182612    1.0953005   0.29839736    2234.2075    54.326395 
 1089000   -1.6741104    0.4453431   -1.2287673    1.0721109   0.29704318    2234.2075    55.022008 
 1090000   -1.6739034   0.45503618   -1.2188672    1.0424459   0.30350845    2234.2075    55.213536 
 1091000   -1.6746119   0.44051646   -1.2340955    1.0307427   0.29382382    2234.2075    55.869343 
 1092000   -1.6791141   0.44693199   -1.2321821    1.0181934   0.29810297    2234.2075     56.31941 
 1093000   -1.6706121    0.4570956   -1.2135165    1.0695103   0.30488208    2234.2075    56.950678 
 1094000   -1.6732789   0.44813046   -1.2251484    1.0432784   0.29890235    2234.2075     57.75471 
 1095000   -1.6836253   0.43714813   -1.2464772   0.99637202   0.29157715    2234.2075    58.238937 
 1096000   -1.6787946   0.46129406   -1.2175005    1.0300105   0.30768245    2234.2075    58.793353 
 1097000   -1.6771592   0.45450663   -1.2226525    1.0284765   0.30315524    2234.2075    59.635118 
 1098000   -1.6726395   0.44718405   -1.2254554    1.0441556    0.2982711    2234.2075    60.305266 
 1099000     -1.68201    0.4436391   -1.2383709   0.99284266   0.29590662    2234.2075    60.788894 
 1100000     -1.66435   0.45545165   -1.2088983    1.1048893   0.30378557    2234.2075     61.16571 
 1101000   -1.6805826   0.45251648   -1.2280662     1.022779   0.30182782    2234.2075    62.235734 
 1102000   -1.6740413   0.45400093   -1.2200404    1.0338947   0.30281794    2234.2075    63.236929 
 1103000    -1.664783    0.4501859   -1.2145971     1.103424   0.30027332    2234.2075    63.541099 
 1104000   -1.6842226   0.45817434   -1.2260482   0.98630628    0.3056016    2234.2075    64.127877 
 1105000   -1.6761893   0.45021092   -1.2259784    1.0458578   0.30029001    2234.2075    64.741961 
 1106000   -1.6769647   0.44764028   -1.2293244     1.051884    0.2985754    2234.2075    64.854921 
 1107000   -1.6863899   0.44379014   -1.2425998   0.98652884   0.29600736    2234.2075    65.459525 
 1108000   -1.6807993   0.45877565   -1.2220237    1.0209021   0.30600267    2234.2075    66.135953 
 1109000   -1.6647128   0.44204891   -1.2226638    1.1077404   0.29484596    2234.2075    66.280039 
 1110000   -1.6853455   0.45837884   -1.2269667    1.0045287     0.305738    2234.2075    67.280775 
 1111000   -1.6721344   0.45648579   -1.2156486    1.0602407   0.30447534    2234.2075    67.750367 
 1112000   -1.6794514   0.45348612   -1.2259652    1.0224782   0.30247456    2234.2075    68.331021 
 1113000   -1.6520664   0.45644959   -1.1956168    1.1547543   0.30445119    2234.2075    69.131843 
 1114000   -1.6689379   0.45391436   -1.2150236    1.0746643    0.3027602    2234.2075    69.886999 
 1115000   -1.6876148    0.4510857   -1.2365291   0.98544527   0.30087349    2234.2075    70.806464 
 1116000   -1.6729259   0.44568253   -1.2272434    1.0539594   0.29726958    2234.2075    71.793575 
 1117000   -1.6753671   0.45009117   -1.2252759     1.036711   0.30021014    2234.2075     72.53659 
 1118000   -1.6739965   0.43580367   -1.2381928    1.0557451    0.2906804    2234.2075    73.033606 
 1119000   -1.6874955   0.45564616   -1.2318493   0.98666496   0.30391531    2234.2075    73.341877 
 1120000   -1.6723367   0.45968302   -1.2126537    1.0787425   0.30660789    2234.2075    74.167916 
 1121000   -1.6591034   0.44272669   -1.2163767    1.1105146   0.29529804    2234.2075     74.65413 
 1122000    -1.664167   0.44208919   -1.2220779    1.0941548   0.29487283    2234.2075    75.491724 
 1123000   -1.6736421   0.43485305   -1.2387891    1.0445882   0.29004634    2234.2075    76.192382 
 1124000   -1.6837791   0.44661921   -1.2371599    1.0134119   0.29789434    2234.2075    76.962579 
 1125000   -1.6654049   0.44282332   -1.2225816    1.0717239   0.29536249    2234.2075    77.192315 
 1126000   -1.6710133   0.44327345   -1.2277398    1.0695057   0.29566273    2234.2075    77.889106 
 1127000    -1.669872   0.44733909   -1.2225329    1.0545609   0.29837451    2234.2075    78.333335 
 1128000   -1.6811586   0.46147889   -1.2196797    1.0017776   0.30780573    2234.2075    78.941025 
 1129000   -1.6677123    0.4675683    -1.200144    1.0992824   0.31186736    2234.2075    79.668436 
 1130000    -1.675111   0.44710786   -1.2280032    1.0378803   0.29822028    2234.2075    80.337579 
 1131000   -1.6819941   0.44999784   -1.2319962    1.0007688   0.30014788    2234.2075    81.460213 
 1132000   -1.6719123   0.44829945   -1.2236128    1.0667218   0.29901506    2234.2075     82.13106 
 1133000   -1.6719301   0.43801463   -1.2339154     1.063746    0.2921551    2234.2075    83.140681 
 1134000   -1.6780166   0.45845199   -1.2195646     1.026738   0.30578679    2234.2075     83.51594 
 1135000    -1.674796   0.43813169   -1.2366643    1.0255998   0.29223318    2234.2075    84.263078 
 1136000    -1.663025   0.44254262   -1.2204824    1.0957525   0.29517527    2234.2075    84.748493 
 1137000   -1.6729828   0.45964436   -1.2133385    1.0421064    0.3065821    2234.2075    85.696234 
 1138000   -1.6761195    0.4667283   -1.2093912    1.0585728   0.31130708    2234.2075    86.382486 
 1139000   -1.6840372   0.46013351   -1.2239037   0.98611639   0.30690837    2234.2075    87.054191 
 1140000   -1.6686985   0.45518062   -1.2135179    1.0658559    0.3036048    2234.2075    87.574336 
 1141000   -1.6794405   0.46512136   -1.2143192    1.0106355   0.31023525    2234.2075    88.358012 
 1142000   -1.6602758   0.43905392   -1.2212219    1.0988733   0.29284831    2234.2075    88.843524 
 1143000   -1.6844942    0.4491487   -1.2353455   0.98640698   0.29958151    2234.2075    89.683087 
 1144000   -1.6717185   0.45554142   -1.2161771    1.0610445   0.30384545    2234.2075    90.193447 
 1145000   -1.6685936   0.45588635   -1.2127072    1.0581615   0.30407551    2234.2075    90.655925 
 1146000   -1.6646523   0.44329215   -1.2213602    1.0902351    0.2956752    2234.2075    91.429376 
 1147000   -1.6758188   0.44366616   -1.2321526    1.0304046   0.29592466    2234.2075    91.631749 
 1148000    -1.668311   0.44867462   -1.2196364    1.0859591    0.2992653    2234.2075    92.088523 
 1149000   -1.6777994   0.45366732   -1.2241321    1.0292876   0.30259543    2234.2075    92.809068 
 1150000   -1.6727652   0.45857382   -1.2141914    1.0580403   0.30586805    2234.2075     93.48697 
 1151000   -1.6724037   0.44795802   -1.2244457    1.0478309   0.29878733    2234.2075    93.889559 
 1152000   -1.6763447   0.45244171   -1.2239029     1.041132   0.30177795    2234.2075    94.538942 
 1153000   -1.6763931   0.44488486   -1.2315082    1.0220915   0.29673753    2234.2075    95.001074 
 1154000   -1.6613348   0.45041165   -1.2109232    1.1172858    0.3004239    2234.2075    95.678907 
 1155000   -1.6749613    0.4628754   -1.2120859    1.0561703    0.3087372    2234.2075    96.086533 
 1156000   -1.6675533   0.44192175   -1.2256316    1.0741015   0.29476115    2234.2075    96.297184 
 1157000   -1.6690813   0.44387495   -1.2252064     1.073191   0.29606393    2234.2075    96.720353 
 1158000   -1.6640124   0.45460539    -1.209407    1.0901696   0.30322112    2234.2075     97.58342 
 1159000   -1.6608152   0.44924805   -1.2115672     1.117187   0.29964778    2234.2075    98.065926 
 1160000   -1.6720258   0.45438884    -1.217637    1.0601215   0.30307668    2234.2075    98.756304 
 1161000   -1.6595903   0.46005887   -1.1995314    1.1146985   0.30685858    2234.2075    99.359584 
 1162000    -1.676869   0.46151221   -1.2153568    1.0325815   0.30782796    2234.2075    100.05503 
 1163000   -1.6619039   0.44640128   -1.2155026    1.1014131   0.29774899    2234.2075    100.48417 
 1164000   -1.6713697   0.44713417   -1.2242355    1.0567223   0.29823782    2234.2075    101.34215 
 1165000    -1.683342   0.45518794   -1.2281541   0.99873908   0.30360967    2234.2075    102.12609 
 1166000   -1.6888162   0.46496542   -1.2238508   0.96693608   0.31013124    2234.2075    103.06346 
 1167000   -1.6673184   0.45063068   -1.2166878     1.084562   0.30056999    2234.2075    103.79618 
 1168000   -1.6729491   0.44159786   -1.2313512    1.0279223   0.29454511    2234.2075    104.83316 
 1169000   -1.6731314   0.45927257   -1.2138588    1.0750267   0.30633412    2234.2075    105.54371 
 1170000   -1.6691299   0.44962082   -1.2195091    1.0780161   0.29989642    2234.2075    106.45279 
 1171000   -1.6783028   0.46370412   -1.2145987    1.0438807   0.30928996    2234.2075    107.23321 
 1172000   -1.6626923   0.45029561   -1.2123967    1.1002262    0.3003465    2234.2075     107.8464 
 1173000    -1.680808   0.44709227   -1.2337157    1.0172511   0.29820987    2234.2075     107.9405 
 1174000   -1.6720253   0.45586189   -1.2161634    1.0843098    0.3040592    2234.2075    108.41264 
 1175000   -1.6841478   0.44195033   -1.2421975   0.99560271   0.29478021    2234.2075    108.90683 
 1176000   -1.6784801   0.45226829   -1.2262118    1.0340386   0.30166227    2234.2075    109.47521 
 1177000   -1.6605699   0.45637387    -1.204196    1.1210862   0.30440069    2234.2075    109.78837 
 1178000   -1.6792996   0.46083326   -1.2184663    1.0291048    0.3073751    2234.2075    110.40087 
 1179000   -1.6771469   0.45014771   -1.2269992    1.0327028   0.30024785    2234.2075    110.93319 
 1180000    -1.669378   0.45182293    -1.217555    1.0703248   0.30136522    2234.2075    111.69479 
 1181000   -1.6801819    0.4485558   -1.2316261    1.0108681   0.29918605    2234.2075    112.39611 
 1182000    -1.673811    0.4339417   -1.2398693    1.0331249   0.28943847    2234.2075    112.59179 
 1183000   -1.6830872   0.45689483   -1.2261924    1.0270516   0.30474817    2234.2075    113.33473 
 1184000   -1.6694502   0.44395256   -1.2254976     1.049967   0.29611569    2234.2075    114.10245 
 1185000   -1.6822606   0.45091004   -1.2313506    1.0186804   0.30075632    2234.2075     114.2913 
 1186000   -1.6892953   0.45011867   -1.2391766   0.96526951   0.30022848    2234.2075    115.26819 
 1187000   -1.6714255   0.43679979   -1.2346257    1.0561415   0.29134481    2234.2075    116.19393 
 1188000   -1.6766179   0.46112647   -1.2154914    1.0399604   0.30757067    2234.2075    116.67262 
 1189000   -1.6789547   0.45588382   -1.2230708    1.0483982   0.30407383    2234.2075    117.32051 
 1190000   -1.6655438   0.44478214   -1.2207617    1.0882219   0.29666902    2234.2075    117.83522 
 1191000     -1.67852   0.45231053   -1.2262095    1.0406632   0.30169045    2234.2075    118.33865 
 1192000   -1.6734566   0.45492882   -1.2185278    1.0469374   0.30343684    2234.2075    118.87323 
 1193000   -1.6693943   0.45640826   -1.2129861    1.0888444   0.30442363    2234.2075    119.31504 
 1194000   -1.6781037   0.42901118   -1.2490926    1.0139137   0.28614981    2234.2075    120.12737 
 1195000   -1.6743514   0.42912244    -1.245229    1.0220011   0.28622403    2234.2075    120.54419 
 1196000   -1.6864131   0.44846049   -1.2379526    1.0019331   0.29912248    2234.2075    120.67015 
 1197000   -1.6804993     0.445369   -1.2351303    1.0160296   0.29706046    2234.2075    121.63706 
 1198000   -1.6645638   0.44977295   -1.2147908    1.1037045   0.29999789    2234.2075    122.11486 
 1199000   -1.6673122   0.44660616    -1.220706    1.0655328   0.29788564    2234.2075    122.66726 
 1200000   -1.6813493   0.45131671   -1.2300326   0.99908372   0.30102757    2234.2075    123.58421 
 1201000   -1.6825988   0.43297493   -1.2496238   0.98182789   0.28879363    2234.2075    123.98391 
 1202000   -1.6643991   0.44105237   -1.2233467    1.0761688   0.29418128    2234.2075    124.16044 
 1203000   -1.6780544   0.43643057   -1.2416238    1.0180358   0.29109854    2234.2075    124.85792 
 1204000   -1.6647111   0.44716843   -1.2175426    1.0800443   0.29826068    2234.2075    125.59823 
 1205000   -1.6720585   0.46712216   -1.2049364    1.0748575   0.31156978    2234.2075    126.65784 
 1206000   -1.6757518   0.45765237   -1.2180994    1.0452211   0.30525345    2234.2075    127.61256 
 1207000   -1.6754017   0.44850821   -1.2268935    1.0267531    0.2991543    2234.2075    128.42159 
 1208000   -1.6706904   0.44471282   -1.2259776    1.0502747   0.29662279    2234.2075    128.75423 
 1209000   -1.6722725   0.44871818   -1.2235544    1.0572253   0.29929436    2234.2075    129.07672 
 1210000   -1.6761252   0.44694071   -1.2291845    1.0402692   0.29810879    2234.2075    129.78489 
 1211000   -1.6846565   0.44167931   -1.2429772   0.98821857   0.29459944    2234.2075      130.115 
 1212000   -1.6748748   0.45866771   -1.2162071    1.0471059   0.30593068    2234.2075    130.23383 
 1213000   -1.6775701   0.45560835   -1.2219618    1.0190119   0.30389009    2234.2075    130.78419 
 1214000   -1.6832809   0.45397958   -1.2293013   0.99138307    0.3028037    2234.2075    131.44677 
 1215000    -1.668124   0.44342712   -1.2246969    1.0694093   0.29576523    2234.2075    131.74637 
 1216000   -1.6797086   0.44590368   -1.2338049    1.0189647   0.29741709    2234.2075    132.32244 
 1217000   -1.6669408   0.44728299   -1.2196578    1.0757561   0.29833709    2234.2075    132.69564 
 1218000   -1.6885159   0.46878219   -1.2197337   0.99020406   0.31267702    2234.2075      133.588 
 1219000   -1.6644737   0.45132005   -1.2131537    1.0854231    0.3010298    2234.2075    133.98648 
 1220000   -1.6798325   0.46198966   -1.2178428    1.0277543   0.30814641    2234.2075    134.64381 
 1221000   -1.6847261   0.44123873   -1.2434874   0.99518746   0.29430558    2234.2075    135.61703 
 1222000   -1.6646533   0.44574332     -1.21891    1.1145701   0.29731013    2234.2075    136.18987 
 1223000   -1.6781733   0.44342658   -1.2347467    1.0249438   0.29576487    2234.2075    136.74889 
 1224000   -1.6821965   0.44926819   -1.2329283     1.015444   0.29966121    2234.2075    136.63798 
 1225000   -1.6701849   0.45096717   -1.2192178    1.0733902   0.30079443    2234.2075    137.31124 
 1226000   -1.6683486   0.43438683   -1.2339618    1.0710504   0.28973536    2234.2075    138.15272 
 1227000   -1.6746342    0.4463456   -1.2282886    1.0292982   0.29771185    2234.2075    139.04093 
 1228000   -1.6755684    0.4656836   -1.2098848    1.0337495   0.31061027    2234.2075    139.69583 
 1229000   -1.6764103   0.45325605   -1.2231542    1.0342791   0.30232111    2234.2075    140.08902 
 1230000   -1.6760856   0.45341951   -1.2226661    1.0511455   0.30243014    2234.2075    140.59819 
 1231000   -1.6809357   0.46327633   -1.2176593    1.0188521   0.30900462    2234.2075    141.06287 
 1232000   -1.6839046   0.44683385   -1.2370708   0.98314556   0.29803751    2234.2075    142.27071 
 1233000   -1.6874353   0.43972238   -1.2477129   0.96514415   0.29329417    2234.2075    143.07502 
 1234000   -1.6736934     0.455834   -1.2178594    1.0426812   0.30404059    2234.2075    143.88517 
 1235000   -1.6778911   0.44853886   -1.2293522    1.0192974   0.29917475    2234.2075    145.19665 
 1236000   -1.6875585   0.44181221   -1.2457463   0.97096101   0.29468808    2234.2075    145.76161 
 1237000   -1.6822896   0.44879421   -1.2334954    1.0065303   0.29934507    2234.2075    145.78474 
 1238000   -1.6682998   0.44213209   -1.2261677    1.0473185   0.29490145    2234.2075    146.20888 
 1239000   -1.6750208   0.44823192   -1.2267889    1.0595667   0.29897002    2234.2075    147.01227 
 1240000   -1.6753527   0.43046117   -1.2448916      1.03029   0.28711696    2234.2075    147.66526 
 1241000   -1.6678941   0.45065413     -1.21724    1.0739744   0.30058563    2234.2075    148.42002 
 1242000   -1.6780324   0.43743718   -1.2405952    1.0105171   0.29176994    2234.2075    148.78438 
 1243000    -1.667696   0.45198564   -1.2157103    1.0917044   0.30147375    2234.2075    149.64687 
 1244000   -1.6771564   0.45030003   -1.2268563    1.0267727   0.30034945    2234.2075     150.9136 
 1245000    -1.676255    0.4447223   -1.2315327     1.039442   0.29662911    2234.2075    151.48184 
 1246000   -1.6734802   0.45890694   -1.2145733     1.067489   0.30609024    2234.2075    152.12374 
 1247000    -1.682676   0.45825817   -1.2244179    1.0091863   0.30565751    2234.2075    153.05294 
 1248000   -1.6747738   0.44383276    -1.230941    1.0271181   0.29603579    2234.2075    153.78242 
 1249000    -1.676606    0.4463643   -1.2302418    1.0393219   0.29772432    2234.2075    154.50464 
 1250000    -1.669552    0.4492134   -1.2203386    1.0759434   0.29962467    2234.2075    155.10362 
 1251000   -1.6702524   0.44821634    -1.222036    1.0626389   0.29895963    2234.2075    155.66173 
 1252000   -1.6701203   0.43999548   -1.2301248    1.0712456   0.29347633    2234.2075    156.47195 
 1253000   -1.6857258   0.45512466   -1.2306012    1.0068911   0.30356747    2234.2075    157.14489 
 1254000   -1.6782434   0.45436182   -1.2238815    1.0149848   0.30305866    2234.2075    158.09886 
 1255000   -1.6827931   0.44460257   -1.2381906   0.99938319   0.29654925    2234.2075    158.88211 
 1256000   -1.6763737   0.44649136   -1.2298824    1.0235926   0.29780907    2234.2075    159.65167 
 1257000   -1.6660282   0.45827922    -1.207749    1.0975583   0.30567155    2234.2075     160.3985 
 1258000   -1.6724421   0.45881331   -1.2136288    1.0647456   0.30602779    2234.2075    160.98489 
 1259000   -1.6661377   0.44628322   -1.2198545    1.0925719   0.29767024    2234.2075    161.67681 
 1260000   -1.6697446     0.459265   -1.2104796    1.0573315   0.30632907    2234.2075    162.07889 
 1261000   -1.6693545   0.45021215   -1.2191424    1.0726483   0.30029083    2234.2075    163.06088 
 1262000   -1.6651407   0.45150138   -1.2136393    1.1049609   0.30115074    2234.2075     163.5985 
 1263000   -1.6730323   0.45103324    -1.221999    1.0585349    0.3008385    2234.2075    164.05865 
 1264000    -1.673317   0.44570496    -1.227612    1.0618383   0.29728454    2234.2075    165.08273 
 1265000   -1.6794033   0.44595668   -1.2334466    1.0086405   0.29745244    2234.2075    165.62936 
 1266000   -1.6673057   0.45102506   -1.2162807    1.0780394   0.30083304    2234.2075    166.48708 
 1267000   -1.6789527   0.45273708   -1.2262156    1.0198269   0.30197495    2234.2075    166.76488 
 1268000    -1.673935     0.456674    -1.217261    1.0560493   0.30460087    2234.2075    167.42443 
 1269000   -1.6698378    0.4478913   -1.2219465    1.0731316   0.29874283    2234.2075    168.39954 
 1270000    -1.675212   0.44873399    -1.226478    1.0473724    0.2993049    2234.2075    168.91808 
 1271000   -1.6589394   0.44759294   -1.2113465    1.1080731   0.29854382    2234.2075    169.33404 
 1272000   -1.6681912   0.45642652   -1.2117647    1.0575117   0.30443581    2234.2075    169.79401 
 1273000   -1.6846311   0.45408977   -1.2305414   0.98517056    0.3028772    2234.2075    170.69374 
 1274000   -1.6679824   0.45054263   -1.2174397    1.0580898   0.30051126    2234.2075    171.68123 
 1275000   -1.6664392   0.46103038   -1.2054088    1.1060659   0.30750658    2234.2075    172.67378 
 1276000   -1.6688636   0.44334936   -1.2255143    1.0800694   0.29571336    2234.2075    172.63858 
 1277000   -1.6644893   0.46705037    -1.197439    1.1169449    0.3115219    2234.2075    172.78419 
 1278000   -1.6751293   0.46223927   -1.2128901     1.043441    0.3083129    2234.2075     173.3015 
 1279000   -1.6767212   0.44511753   -1.2316036    1.0231963   0.29689273    2234.2075    174.01271 
 1280000   -1.6701529   0.46718242   -1.2029704    1.0747982   0.31160997    2234.2075    174.35712 
 1281000   -1.6773755   0.43806873   -1.2393067      1.02484   0.29219119    2234.2075    174.89189 
 1282000   -1.6692777   0.44905678   -1.2202209     1.044859    0.2995202    2234.2075    175.69506 
 1283000   -1.6795857   0.45031558   -1.2292702    1.0257786   0.30035982    2234.2075    176.20819 
 1284000   -1.6872298   0.45948451   -1.2277452   0.98539618   0.30647548    2234.2075    176.83138 
 1285000   -1.6719984   0.45753142    -1.214467    1.0577389   0.30517277    2234.2075    177.33565 
 1286000   -1.6721688   0.44156615   -1.2306027     1.024194   0.29452396    2234.2075    178.07012 
 1287000   -1.6654852   0.45555056   -1.2099347    1.0982844   0.30385155    2234.2075    178.84921 
 1288000   -1.6688261   0.43998412    -1.228842    1.0546906   0.29346875    2234.2075    179.42632 
 1289000   -1.6691769   0.44230697   -1.2268699     1.058269   0.29501809    2234.2075    179.97556 
 1290000   -1.6810562   0.44474922    -1.236307     1.014807   0.29664707    2234.2075    180.37846 
 1291000   -1.6755018   0.47469895   -1.2008028    1.0645973   0.31662349    2234.2075    181.23074 
 1292000   -1.6657277   0.45327692   -1.2124508     1.092088   0.30233503    2234.2075    181.58071 
 1293000    -1.668745   0.44627857   -1.2224664    1.0679277   0.29766714    2234.2075    182.23964 
 1294000   -1.6746233   0.43899497   -1.2356283    1.0296297   0.29280899    2234.2075    182.98982 
 1295000   -1.6693061   0.44384644   -1.2254597    1.0843226   0.29604491    2234.2075    183.86685 
 1296000    -1.667695   0.45060473   -1.2170903    1.0595204   0.30055268    2234.2075    183.95202 
 1297000   -1.6542269   0.42925018   -1.2249767    1.1314604   0.28630923    2234.2075    183.88677 
 1298000   -1.6721354   0.45638351   -1.2157519    1.0695283   0.30440712    2234.2075    185.44919 
 1299000    -1.664018   0.46260241   -1.2014156    1.1159921   0.30855512    2234.2075    186.20275 
 1300000   -1.6715934   0.44527154   -1.2263219    1.0666498   0.29699546    2234.2075    186.77843 
 1301000   -1.6722337   0.44889317   -1.2233406    1.0684906   0.29941107    2234.2075     187.6997 
 1302000   -1.6708869   0.45487431   -1.2160126     1.082369   0.30340048    2234.2075    188.19286 
 1303000   -1.6844086   0.46939602   -1.2150126   0.98396479   0.31308644    2234.2075    188.68145 
 1304000   -1.6740354   0.44898311   -1.2250523    1.0555128   0.29947106    2234.2075    189.73548 
 1305000   -1.6772236   0.44038147   -1.2368421    1.0270925   0.29373378    2234.2075    190.00292 
 1306000   -1.6788001   0.44477959   -1.2340205    1.0257492   0.29666733    2234.2075    190.63408 
 1307000   -1.6800723   0.45404161   -1.2260307    1.0269942   0.30284508    2234.2075    190.79596 
 1308000   -1.6799042   0.44065645   -1.2392478    1.0144728   0.29391719    2234.2075     191.4581 
 1309000   -1.6734332   0.45405597   -1.2193773    1.0478477   0.30285465    2234.2075    191.88524 
 1310000   -1.6917505   0.45059718   -1.2411534   0.95646408   0.30054765    2234.2075    192.74448 
 1311000   -1.6803147   0.44608305   -1.2342317    1.0197499   0.29753673    2234.2075    192.89551 
 1312000   -1.6721374    0.4569608   -1.2151766    1.0503806   0.30479217    2234.2075     194.1314 
 1313000   -1.6708572    0.4503119   -1.2205453    1.0627461   0.30035736    2234.2075    194.67572 
 1314000   -1.6696625   0.44879323   -1.2208693     1.066153   0.29934441    2234.2075    195.10839 
 1315000   -1.6750521   0.45925456   -1.2157975       1.0322    0.3063221    2234.2075    195.47123 
 1316000   -1.6756561   0.43868938   -1.2369667    1.0084641   0.29260516    2234.2075    196.23539 
 1317000   -1.6788116   0.42954112   -1.2492704    1.0003399   0.28650329    2234.2075    196.63937 
 1318000   -1.6742359   0.44294698   -1.2312889    1.0430076   0.29544497    2234.2075    197.11728 
 1319000   -1.6770991   0.44919735   -1.2279017    1.0309655   0.29961396    2234.2075    197.84851 
 1320000   -1.6677929   0.44479856   -1.2229943    1.0945389   0.29667998    2234.2075    198.37405 
 1321000   -1.6737461   0.45885667   -1.2148895    1.0689711   0.30605671    2234.2075    198.84225 
 1322000   -1.6617323   0.45379771   -1.2079346    1.0980944    0.3026824    2234.2075    199.04705 
 1323000   -1.6856388   0.45541903   -1.2302198   0.97300947   0.30376382    2234.2075    199.67919 
 1324000   -1.6775352   0.43695705   -1.2405781    1.0101322    0.2914497    2234.2075    200.35151 
 1325000   -1.6783939   0.45952857   -1.2188654    1.0355632   0.30650487    2234.2075    201.21432 
 1326000   -1.6827405   0.47461933   -1.2081212    1.0119973   0.31657039    2234.2075    201.60587 
 1327000   -1.6788705   0.45027428   -1.2285962    1.0125049   0.30033227    2234.2075    202.78707 
 1328000   -1.6656599   0.45366878   -1.2119911    1.0655913    0.3025964    2234.2075    203.14796 
 1329000   -1.6717007   0.46514156   -1.2065592    1.0699642   0.31024873    2234.2075    203.84011 
 1330000   -1.6661292   0.45157107   -1.2145582    1.0819151   0.30119723    2234.2075    204.55389 
 1331000   -1.6648415   0.44212941   -1.2227121    1.1059048   0.29489966    2234.2075    205.41657 
 1332000   -1.6785006   0.44518112   -1.2333194    1.0193283   0.29693514    2234.2075    206.29875 
 1333000   -1.6699377   0.44400243   -1.2259353    1.0640411   0.29614896    2234.2075     206.7536 
 1334000   -1.6651135   0.46310415   -1.2020094    1.1037731   0.30888978    2234.2075    208.00739 
 1335000   -1.6729097   0.44744275   -1.2254669    1.0349537   0.29844364    2234.2075    208.87944 
 1336000   -1.6786332   0.45995796   -1.2186752    1.0121512   0.30679127    2234.2075     209.6845 
 1337000   -1.6529537   0.46095636   -1.1919973    1.1520636    0.3074572    2234.2075    210.78624 
 1338000   -1.6798123    0.4402119   -1.2396004   0.99974315   0.29362068    2234.2075    211.33404 
 1339000    -1.670744   0.44957027   -1.2211738    1.0661181    0.2998627    2234.2075    211.94697 
 1340000   -1.6795554    0.4446643   -1.2348911    0.9983456   0.29659042    2234.2075    212.28934 
 1341000   -1.6856237   0.45433772    -1.231286   0.99009866   0.30304258    2234.2075    212.98299 
 1342000   -1.6807297   0.44666319   -1.2340665   0.98776227   0.29792368    2234.2075    213.99603 
 1343000   -1.6825612   0.45740182   -1.2251594    1.0050416   0.30508633    2234.2075    214.26081 
 1344000   -1.6831564   0.43469236    -1.248464    1.0131081   0.28993916    2234.2075    214.92835 
 1345000   -1.6796117   0.45915546   -1.2204562    1.0417456   0.30625601    2234.2075    215.56208 
 1346000   -1.6753999    0.4419467   -1.2334532    1.0374815   0.29477779    2234.2075    216.65311 
 1347000   -1.6758072   0.45340586   -1.2224013    1.0311258   0.30242103    2234.2075    217.60357 
 1348000   -1.6670788   0.45537727   -1.2117016    1.0960457   0.30373596    2234.2075    218.24991 
 1349000   -1.6853961   0.45232162   -1.2330745   0.98886661   0.30169784    2234.2075     218.9714 
 1350000   -1.6709325    0.4562581   -1.2146744    1.1040448   0.30432347    2234.2075    219.67869 
 1351000   -1.6700296   0.45695267   -1.2130769    1.0700939   0.30478675    2234.2075    220.19232 
 1352000   -1.6846739   0.46353914   -1.2211347   0.99513211   0.30917991    2234.2075    220.54009 
 1353000   -1.6701858   0.46681442   -1.2033714    1.0814697   0.31136452    2234.2075    220.47503 
 1354000   -1.6881879    0.4639896   -1.2241983   0.99204129   0.30948037    2234.2075    221.03172 
 1355000   -1.6758614   0.45669388   -1.2191676    1.0488248   0.30461413    2234.2075    221.72348 
 1356000   -1.6671744   0.44824974   -1.2189246     1.104672    0.2989819    2234.2075    222.04921 
 1357000   -1.6816737   0.46104885   -1.2206248    1.0165103    0.3075189    2234.2075     222.7704 
 1358000   -1.6713574   0.44202581   -1.2293316    1.0526614   0.29483055    2234.2075    224.06654 
 1359000   -1.6714682   0.45951234   -1.2119559    1.0722545   0.30649405    2234.2075    224.25266 
 1360000   -1.6893883   0.45381192   -1.2355763   0.97248298   0.30269187    2234.2075    224.40229 
 1361000   -1.6654097   0.44257545   -1.2228343    1.0846466   0.29519716    2234.2075    225.16644 
 1362000   -1.6669077   0.44794318   -1.2189646     1.084797   0.29877743    2234.2075    226.01441 
 1363000   -1.6823414   0.45028914   -1.2320522    1.0087748   0.30034219    2234.2075    226.66011 
 1364000   -1.6679937   0.44241268    -1.225581    1.0614605    0.2950886    2234.2075    227.18786 
 1365000   -1.6745699   0.44755288    -1.227017      1.03901    0.2985171    2234.2075    227.11573 
 1366000   -1.6707514   0.44867294   -1.2220784    1.0524421   0.29926418    2234.2075     227.5531 
 1367000    -1.680952   0.44282792    -1.238124    1.0179154   0.29536556    2234.2075    228.18651 
 1368000   -1.6648638   0.44790101   -1.2169628    1.0866438   0.29874931    2234.2075    229.22975 
 1369000   -1.6763106   0.43862045   -1.2376901    1.0161752   0.29255919    2234.2075    229.52561 
 1370000   -1.6802296   0.44396906   -1.2362606    1.0127027    0.2961267    2234.2075    229.67033 
 1371000   -1.6684055   0.45018458   -1.2182209    1.0701549   0.30027244    2234.2075     230.9193 
 1372000    -1.671949   0.45659562   -1.2153533    1.0687826    0.3045486    2234.2075      231.554 
 1373000   -1.6661946   0.45268991   -1.2135047    1.0965868    0.3019435    2234.2075    232.51842 
 1374000   -1.6829668   0.43483548   -1.2481313   0.96993803   0.29003462    2234.2075    233.25008 
 1375000    -1.679043   0.45362466   -1.2254183    1.0229147   0.30256697    2234.2075    234.46674 
 1376000   -1.6603853   0.44805804   -1.2123273    1.1105738   0.29885405    2234.2075    234.57296 
 1377000   -1.6823711    0.4563504   -1.2260207    1.0084964   0.30438504    2234.2075    234.79349 
 1378000   -1.6749485   0.44555691   -1.2293916    1.0544048    0.2971858    2234.2075    235.26831 
 1379000   -1.6781756   0.46286359    -1.215312    1.0480664   0.30872933    2234.2075    236.12674 
 1380000   -1.6741061   0.45151047   -1.2225956    1.0580185   0.30115681    2234.2075    236.91324 
 1381000   -1.6639257   0.46241733   -1.2015084    1.1138598   0.30843167    2234.2075    237.19642 
 1382000   -1.6853954   0.45029186   -1.2351035   0.99818686     0.300344    2234.2075    237.72148 
 1383000   -1.6852658   0.43887764   -1.2463882   0.98071828   0.29273073    2234.2075    238.88854 
 1384000   -1.6780478   0.44903771   -1.2290101    1.0228182   0.29950748    2234.2075     239.0756 
 1385000   -1.6779426   0.45473664    -1.223206    1.0227286   0.30330866    2234.2075     239.8225 
 1386000   -1.6748301    0.4510203   -1.2238098    1.0331778   0.30082986    2234.2075    240.40094 
 1387000   -1.6854818    0.4524628    -1.233019   0.99080624   0.30179201    2234.2075    241.05305 
 1388000   -1.6554603   0.43208159   -1.2233787    1.1108203   0.28819778    2234.2075    242.17526 
 1389000   -1.6690381   0.44814009    -1.220898    1.0606355   0.29890877    2234.2075    242.24938 
 1390000   -1.6784057    0.4747821   -1.2036236    1.0376606   0.31667895    2234.2075    242.17535 
 1391000   -1.6651405   0.44847361   -1.2166669    1.0933742   0.29913123    2234.2075    242.54535 
 1392000   -1.6746501   0.44524839   -1.2294017    1.0347578   0.29698001    2234.2075    242.99274 
 1393000   -1.6785939   0.43765734   -1.2409366    1.0137895   0.29191679    2234.2075    244.24539 
 1394000   -1.6651004   0.45275603   -1.2123443    1.1019655   0.30198759    2234.2075    245.05562 
 1395000   -1.6806712   0.44045398   -1.2402172   0.99659899   0.29378215    2234.2075    245.33405 
 1396000   -1.6787255   0.45343857    -1.225287    1.0215926   0.30244285    2234.2075    245.97284 
 1397000   -1.6713468   0.45900242   -1.2123444     1.071334   0.30615393    2234.2075    246.74614 
 1398000   -1.6755148   0.46854464   -1.2069702    1.0431701   0.31251857    2234.2075    248.18181 
 1399000   -1.6834488   0.45785701   -1.2255918    1.0138859   0.30538994    2234.2075    249.37271 
 1400000   -1.6757236   0.45216592   -1.2235576    1.0136233     0.301594    2234.2075    249.38823 
 1401000   -1.6772521     0.441143   -1.2361091    1.0161502   0.29424172    2234.2075    249.97896 
 1402000   -1.6771307   0.45874368    -1.218387    1.0153197   0.30598135    2234.2075    250.37531 
 1403000   -1.6686298   0.43930706   -1.2293228    1.0585668   0.29301716    2234.2075    250.72332 
 1404000   -1.6785311   0.45731316    -1.221218     1.014762   0.30502719    2234.2075    251.25172 
 1405000   -1.6739915   0.43486937   -1.2391221    1.0484944   0.29005722    2234.2075    252.12289 
 1406000   -1.6753232   0.45014835   -1.2251749    1.0488288   0.30024828    2234.2075    252.65232 
 1407000   -1.6757562   0.44282874   -1.2329275    1.0418024   0.29536611    2234.2075     253.5017 
 1408000   -1.6679844    0.4416265   -1.2263579    1.0836108   0.29456422    2234.2075      253.549 
 1409000   -1.6709433   0.45201171   -1.2189316    1.0570184   0.30149113    2234.2075    253.71398 
 1410000   -1.6723723   0.46283308   -1.2095392    1.0650085   0.30870897    2234.2075    253.85391 
 1411000    -1.670509   0.44210303    -1.228406    1.0752221   0.29488206    2234.2075    255.00674 
 1412000   -1.6908298   0.45960888   -1.2312209   0.96764117   0.30655844    2234.2075    255.40996 
 1413000   -1.6784638   0.46408552   -1.2143783    1.0437894   0.30954435    2234.2075    255.66905 
 1414000   -1.6634805   0.44650179   -1.2169787    1.1048029   0.29781603    2234.2075    256.53483 
 1415000   -1.6844107   0.44713069     -1.23728    1.0084319    0.2982355    2234.2075     256.3623 
 1416000   -1.6787776   0.46132802   -1.2174496    1.0218397    0.3077051    2234.2075     256.0815 
 1417000   -1.6630416   0.45687068   -1.2061709     1.114609   0.30473206    2234.2075    256.67168 
 1418000   -1.6779407   0.44339337   -1.2345473    1.0399775   0.29574272    2234.2075      257.465 
 1419000   -1.6702382    0.4498463   -1.2203919    1.0719444   0.30004681    2234.2075    258.27573 
 1420000   -1.6711779   0.45463034   -1.2165475     1.070735   0.30323776    2234.2075    259.03979 
 1421000    -1.674183   0.46194311   -1.2122399    1.0540884   0.30811536    2234.2075    259.38595 
 1422000   -1.6662728   0.45208691   -1.2141859     1.079554    0.3015413    2234.2075    259.82234 
 1423000   -1.6668807   0.45610222   -1.2107785    1.0959008    0.3042195    2234.2075    260.05627 
 1424000   -1.6654076   0.44640754   -1.2190001    1.0845849   0.29775316    2234.2075    260.59143 
 1425000   -1.6837048   0.44499362   -1.2387111    1.0038326   0.29681008    2234.2075    260.89131 
 1426000   -1.6685076   0.45945496   -1.2090526    1.0656915   0.30645577    2234.2075    260.59799 
 1427000   -1.6707744   0.45175595   -1.2190184    1.0515464   0.30132054    2234.2075    261.26197 
 1428000   -1.6824153   0.44479635   -1.2376189    1.0004502    0.2966785    2234.2075    262.01563 
 1429000    -1.674373   0.43494018   -1.2394328    1.0412723   0.29010445    2234.2075    262.91833 
 1430000   -1.6696461    0.4606126   -1.2090335     1.079591   0.30722791    2234.2075    263.26443 
 1431000   -1.6681081   0.44098035   -1.2271277    1.0757225   0.29413323    2234.2075    263.88276 
 1432000   -1.6773751   0.45081621   -1.2265589    1.0366989   0.30069374    2234.2075    264.52793 
 1433000    -1.663497   0.45385364   -1.2096433    1.0960114    0.3027197    2234.2075    265.44812 
 1434000   -1.6653116    0.4454472   -1.2198644    1.0863197   0.29711262    2234.2075     265.8443 
 1435000   -1.6653965   0.44689956   -1.2184969    1.0736783   0.29808134    2234.2075     266.2382 
 1436000   -1.6760645   0.44473976   -1.2313247    1.0371921   0.29664075    2234.2075    267.01994 
 1437000   -1.6739257   0.44137828   -1.2325474    1.0485621   0.29439865    2234.2075    267.30323 
 1438000   -1.6869911   0.44906444   -1.2379267   0.98290106   0.29952531    2234.2075    267.53324 
 1439000   -1.6729544   0.43240943   -1.2405449    1.0380825   0.28841645    2234.2075    268.61832 
 1440000   -1.6706592   0.44069854   -1.2299606    1.0729054   0.29394527    2234.2075    269.64165 
 1441000    -1.668229   0.44373821   -1.2244908    1.0587959   0.29597272    2234.2075    270.09875 
 1442000    -1.672372   0.44133242   -1.2310396      1.03829   0.29436806    2234.2075    270.58992 
 1443000   -1.6857476   0.44603007   -1.2397176   0.98733517   0.29750139    2234.2075    270.88529 
 1444000   -1.6758752   0.44585785   -1.2300174    1.0569673   0.29738652    2234.2075    271.88069 
 1445000   -1.6742722   0.45285214     -1.22142    1.0504071    0.3020517    2234.2075    272.54935 
 1446000   -1.6846864   0.46099898   -1.2236875   0.99472724   0.30748563    2234.2075    272.93371 
 1447000   -1.6712698   0.45274706   -1.2185228    1.0628392   0.30198161    2234.2075    273.76268 
 1448000   -1.6703595   0.43915711   -1.2312024    1.0785796   0.29291714    2234.2075    274.44444 
 1449000   -1.6750415   0.44700465   -1.2280369    1.0154998   0.29815143    2234.2075    275.21698 
 1450000   -1.6791899   0.43720616   -1.2419837    1.0243171   0.29161586    2234.2075    275.97409 
 1451000   -1.6737771   0.45064625   -1.2231309    1.0472404   0.30058037    2234.2075    277.14511 
 1452000   -1.6717009   0.44232133   -1.2293796    1.0598155   0.29502767    2234.2075    278.25949 
 1453000   -1.6721956   0.44401853   -1.2281771    1.0488518    0.2961597    2234.2075    278.26414 
 1454000   -1.6675864   0.45311579   -1.2144706    1.0893329   0.30222755    2234.2075    278.06782 
 1455000   -1.6723589   0.44796319   -1.2243958    1.0651669   0.29879078    2234.2075    278.07484 
 1456000   -1.6718247   0.44925052   -1.2225741    1.0507912   0.29964943    2234.2075    278.36265 
 1457000   -1.6818244   0.44709003   -1.2347344    1.0107466   0.29820838    2234.2075    279.30796 
 1458000   -1.6844145   0.44229555    -1.242119   0.98307221   0.29501047    2234.2075    279.73355 
 1459000    -1.682213   0.46278212   -1.2194309     1.011051   0.30867498    2234.2075    280.38382 
 1460000   -1.6840463    0.4359169   -1.2481294   0.99355765   0.29075592    2234.2075    281.16348 
 1461000   -1.6854738   0.45513485   -1.2303389   0.98568092   0.30357427    2234.2075    282.07302 
 1462000   -1.6772378   0.44468536   -1.2325525     1.023347   0.29660447    2234.2075     282.6282 
 1463000   -1.6671393   0.43972637   -1.2274129    1.0601534   0.29329683    2234.2075    283.31105 
 1464000   -1.6832495   0.45246382   -1.2307857    1.0108619   0.30179269    2234.2075     283.9479 
 1465000   -1.6697222    0.4649731   -1.2047491    1.0830213   0.31013636    2234.2075    284.03712 
 1466000   -1.6871562    0.4517865   -1.2353697   0.98706882   0.30134092    2234.2075    284.61579 
 1467000   -1.6758878   0.45330364   -1.2225842    1.0387056   0.30235285    2234.2075    285.47575 
 1468000   -1.6843309   0.45930062   -1.2250303   0.98989143   0.30635283    2234.2075    286.02982 
 1469000   -1.6745784   0.44397438    -1.230604    1.0532417   0.29613025    2234.2075    286.57354 
 1470000   -1.6793678   0.46284219   -1.2165256    1.0162672   0.30871505    2234.2075    287.47909 
 1471000   -1.6650658   0.45426861   -1.2107972    1.1064858   0.30299649    2234.2075    288.31783 
 1472000   -1.6673704   0.44986626   -1.2175041    1.0664816   0.30006012    2234.2075    289.09407 
 1473000   -1.6660986   0.45377205   -1.2123265    1.1008915   0.30266528    2234.2075    289.64216 
 1474000   -1.6828308   0.45048428   -1.2323465    1.0174923   0.30047234    2234.2075    289.63857 
 1475000   -1.6719484   0.45177019   -1.2201782    1.0598262   0.30133004    2234.2075    290.59447 
 1476000   -1.6767083   0.44624526   -1.2304631    1.0406088   0.29764492    2234.2075     291.9125 
 1477000   -1.6765025     0.443748   -1.2327545    1.0269034   0.29597926    2234.2075    292.58532 
 1478000   -1.6719538   0.46113662   -1.2108172    1.0482894   0.30757744    2234.2075     293.4417 
 1479000   -1.6833413   0.44896097   -1.2343803   0.99750166    0.2994563    2234.2075    294.35734 
 1480000   -1.6782152   0.43899447   -1.2392207    1.0296486   0.29280866    2234.2075    294.80196 
 1481000    -1.670543   0.44517089   -1.2253721    1.0421547   0.29692832    2234.2075    295.93676 
 1482000   -1.6704722   0.43594526    -1.234527    1.0408388   0.29077484    2234.2075     296.7375 
 1483000   -1.6822802   0.43148788   -1.2507924   0.99578456   0.28780177    2234.2075    297.68683 
 1484000   -1.6734539   0.44791731   -1.2255366    1.0579878   0.29876018    2234.2075    297.66293 
 1485000   -1.6857535   0.44490876   -1.2408447    1.0059386   0.29675348    2234.2075    298.80979 
 1486000   -1.6712544   0.44247474   -1.2287797    1.0582023   0.29512999    2234.2075     299.8127 
 1487000   -1.6755989     0.452219   -1.2233799     1.054499    0.3016294    2234.2075    300.30706 
 1488000   -1.6769426   0.44917067   -1.2277719    1.0211852   0.29959617    2234.2075    300.78383 
 1489000   -1.6638155    0.4360128   -1.2278027    1.0802385   0.29081989    2234.2075    301.17982 
 1490000   -1.6689147    0.4580324   -1.2108823    1.0757293   0.30550693    2234.2075    301.18128 
 1491000   -1.6769644    0.4509209   -1.2260435    1.0291907   0.30076357    2234.2075    301.27274 
 1492000   -1.6876931   0.45036336   -1.2373298   0.97610878   0.30039169    2234.2075    302.22921 
 1493000   -1.6798844   0.45788071   -1.2220037    1.0072316   0.30540575    2234.2075    303.60761 
 1494000   -1.6756874   0.44906628   -1.2266211    1.0192366   0.29952654    2234.2075    303.99225 
 1495000   -1.6708242   0.43925871   -1.2315655    1.0335623    0.2929849    2234.2075    304.35076 
 1496000   -1.6704684   0.44862538   -1.2218431    1.0551386   0.29923246    2234.2075    305.05612 
 1497000   -1.6732788   0.47572423   -1.1975545    1.0529089   0.31730735    2234.2075    306.27692 
 1498000   -1.6696769   0.45267072   -1.2170061    1.0885372    0.3019307    2234.2075    307.32394 
 1499000   -1.6695247   0.45474258   -1.2147822      1.08283   0.30331262    2234.2075    308.24608 
 1500000   -1.6623042   0.44815265   -1.2141515     1.094415   0.29891715    2234.2075    309.15801 
 1501000    -1.672266   0.44478985   -1.2274761    1.0667643   0.29667417    2234.2075    309.40312 
 1502000   -1.6797897    0.4437049   -1.2360848    1.0057937   0.29595051    2234.2075    309.94006 
 1503000   -1.6677689   0.46274412   -1.2050247    1.0951991   0.30864964    2234.2075     311.1233 
 1504000    -1.683176   0.45170268   -1.2314734    1.0128602   0.30128501    2234.2075     311.7431 
 1505000   -1.6696795   0.45308745    -1.216592    1.0687393   0.30220865    2234.2075    312.40508 
 1506000   -1.6680176   0.45916831   -1.2088493    1.0744571   0.30626458    2234.2075     312.8226 
 1507000   -1.6730304   0.45057151   -1.2224589    1.0528903   0.30053053    2234.2075    313.95931 
 1508000   -1.6741472   0.45259102   -1.2215562    1.0447989   0.30187754    2234.2075    314.44729 
 1509000   -1.6822632   0.45417813   -1.2280851    1.0361286   0.30293613    2234.2075    315.03891 
 1510000   -1.6671108   0.45230169   -1.2148091    1.0692954   0.30168455    2234.2075    315.59124 
 1511000   -1.6841721   0.45332269   -1.2308494    1.0175146   0.30236556    2234.2075    315.88507 
 1512000    -1.650384   0.45352314   -1.1968609    1.1841371   0.30249926    2234.2075    315.93686 
 1513000   -1.6763066   0.44447291   -1.2318337    1.0450926   0.29646277    2234.2075    316.58092 
 1514000   -1.6745037    0.4546536   -1.2198501    1.0443042   0.30325327    2234.2075    317.12401 
 1515000   -1.6664391   0.45529401   -1.2111451    1.1019544   0.30368043    2234.2075    317.67055 
 1516000   -1.6678091   0.44487254   -1.2229366    1.0619646   0.29672932    2234.2075    318.25364 
 1517000   -1.6734246   0.45859293   -1.2148316    1.0447341    0.3058808    2234.2075    318.93138 
 1518000   -1.6735072   0.43376493   -1.2397422    1.0593015   0.28932056    2234.2075    319.82999 
 1519000   -1.6643911    0.4439297   -1.2204614    1.0875514   0.29610045    2234.2075    320.67703 
 1520000   -1.6780752    0.4391968   -1.2388784    1.0318833   0.29294361    2234.2075    321.43918 
 1521000   -1.6779899   0.43755399   -1.2404359    1.0263635   0.29184786    2234.2075    322.46015 
 1522000   -1.6671297   0.44064282   -1.2264869    1.0982299    0.2939081    2234.2075    323.66202 
 1523000   -1.6675653   0.44780518   -1.2197601    1.0783596   0.29868539    2234.2075    324.27972 
 1524000   -1.6954577   0.45175207   -1.2437056   0.94246191   0.30131796    2234.2075    324.36511 
 1525000   -1.6762365   0.43360461   -1.2426319    1.0592235   0.28921363    2234.2075    324.51919 
 1526000   -1.6759393   0.45446502   -1.2214743    1.0374308   0.30312749    2234.2075    325.44688 
 1527000   -1.6791526   0.45661071   -1.2225419     1.024225   0.30455866    2234.2075    326.12124 
 1528000   -1.6774344   0.45073684   -1.2266975    1.0442476    0.3006408    2234.2075    326.56508 
 1529000   -1.6746607   0.44690984   -1.2277508    1.0428138    0.2980882    2234.2075     326.9369 
 1530000   -1.6772112   0.44523593   -1.2319753     1.022396    0.2969717    2234.2075    327.58759 
 1531000   -1.6742561   0.45337558   -1.2208805    1.0491227   0.30240084    2234.2075    328.13366 
 1532000   -1.6686235   0.44351036   -1.2251132    1.0650858   0.29582075    2234.2075     328.5364 
 1533000   -1.6792403   0.43563456   -1.2436057    1.0186538    0.2905676    2234.2075    329.48155 
 1534000   -1.6716823   0.45258189   -1.2191004    1.0588532   0.30187145    2234.2075    330.31789 
 1535000   -1.6849274   0.45721635   -1.2277111    1.0042033   0.30496262    2234.2075    331.06934 
 1536000   -1.6695052   0.46843853   -1.2010666    1.0693234    0.3124478    2234.2075    331.12314 
 1537000    -1.687002   0.45751881   -1.2294832   0.98004837   0.30516437    2234.2075    331.79629 
 1538000   -1.6780689   0.45980531   -1.2182636    1.0178375   0.30668946    2234.2075    332.55821 
 1539000   -1.6714173   0.46125214   -1.2101652    1.0826939   0.30765449    2234.2075    333.27527 
 1540000   -1.6705314   0.44863854   -1.2218928    1.0553174   0.29924124    2234.2075    333.61692 
 1541000   -1.6737831   0.45072974   -1.2230533    1.0597263   0.30063607    2234.2075    333.70147 
 1542000    -1.671725   0.45524254   -1.2164825    1.0496335    0.3036461    2234.2075    333.59612 
 1543000   -1.6811252   0.45322263   -1.2279026    1.0107537   0.30229882    2234.2075    334.28117 
 1544000   -1.6909199    0.4504786   -1.2404413   0.94480492   0.30046855    2234.2075     335.5597 
 1545000   -1.6568147   0.44176592   -1.2150488    1.1152847   0.29465721    2234.2075    336.67966 
 1546000    -1.674754    0.4653065   -1.2094475    1.0499206   0.31035874    2234.2075    337.10669 
 1547000   -1.6587125   0.44847036   -1.2102422    1.1336563   0.29912906    2234.2075    338.42321 
 1548000   -1.6726531   0.44493543   -1.2277176    1.0544519   0.29677127    2234.2075    338.87226 
 1549000   -1.6671009   0.44923172   -1.2178692    1.0776575   0.29963689    2234.2075    339.56071 
 1550000   -1.6748275   0.44228694   -1.2325405    1.0387357   0.29500473    2234.2075    339.72264 
 1551000   -1.6808419    0.4554864   -1.2253555    1.0159977   0.30380875    2234.2075    339.90769 
 1552000   -1.6663238   0.45063411   -1.2156897    1.0900694   0.30057228    2234.2075    341.35153 
 1553000   -1.6858736   0.46191336   -1.2239603   0.98022529   0.30809552    2234.2075    341.89062 
 1554000   -1.6740596   0.45461037   -1.2194492    1.0533587   0.30322444    2234.2075    343.40837 
 1555000   -1.6709402   0.45446576   -1.2164745    1.0779644   0.30312798    2234.2075    343.53717 
 1556000   -1.6880309   0.44296783   -1.2450631   0.94606364   0.29545888    2234.2075     343.9045 
 1557000   -1.6598519   0.44320295   -1.2166489    1.0943229   0.29561571    2234.2075    344.27437 
 1558000   -1.6790586   0.45294991   -1.2261087    1.0215576   0.30211692    2234.2075    344.84147 
 1559000   -1.6573131   0.44474154   -1.2125716    1.1218112   0.29664194    2234.2075     345.4986 
 1560000   -1.6606689   0.45242739   -1.2082415     1.110658   0.30176839    2234.2075    346.05444 
 1561000   -1.6718205   0.44990574   -1.2219148    1.0609015   0.30008645    2234.2075    346.99845 
 1562000   -1.6648062   0.45177992   -1.2130263    1.1005139   0.30133653    2234.2075      347.987 
 1563000   -1.6699667   0.44836176   -1.2216049     1.074117   0.29905663    2234.2075    348.67507 
 1564000   -1.6786345   0.44949957   -1.2291349    1.0307185   0.29981555    2234.2075    349.21648 
 1565000   -1.6620033   0.44343872   -1.2185645     1.114899   0.29577297    2234.2075    350.33284 
 1566000   -1.6602821   0.44600875   -1.2142734    1.1406289   0.29748717    2234.2075    350.74646 
 1567000   -1.6757726   0.44137514   -1.2343974    1.0333115   0.29439656    2234.2075    351.31338 
 1568000   -1.6805912   0.43845197   -1.2421392    1.0078167   0.29244681    2234.2075    352.02818 
 1569000   -1.6743714   0.45305085   -1.2213205    1.0554054   0.30218424    2234.2075    353.04315 
 1570000    -1.678516   0.43589117   -1.2426248    1.0212228   0.29073876    2234.2075    353.33065 
 1571000   -1.6755791   0.44653439   -1.2290447    1.0329819   0.29783777    2234.2075    353.66044 
 1572000   -1.6754602   0.45138824   -1.2240719    1.0391681   0.30107528    2234.2075    354.21465 
 1573000    -1.673153    0.4507943   -1.2223587    1.0558442   0.30067912    2234.2075    355.14637 
 1574000   -1.6775198   0.45642814   -1.2210916    1.0240202   0.30443689    2234.2075    355.71671 
 1575000    -1.673189   0.44733653   -1.2258524    1.0336587    0.2983728    2234.2075    356.21588 
 1576000   -1.6826231    0.4439884   -1.2386347   0.99566514    0.2961396    2234.2075    356.51097 
 1577000   -1.6815207   0.46270588   -1.2188149    1.0284988   0.30862413    2234.2075    357.34445 
 1578000   -1.6827799   0.44277945   -1.2400005    1.0143199   0.29533323    2234.2075     357.9975 
 1579000   -1.6727078   0.44829962   -1.2244081    1.0536526   0.29901518    2234.2075    358.80764 
 1580000   -1.6692004   0.45210597   -1.2170944    1.0746494   0.30155401    2234.2075    359.90254 
 1581000   -1.6761631   0.45145504    -1.224708    1.0430483   0.30111983    2234.2075    360.96454 
 1582000   -1.6709867    0.4542592   -1.2167275    1.0589227   0.30299021    2234.2075    361.03013 
 1583000   -1.6813072   0.45369551   -1.2276117    0.9906529   0.30261423    2234.2075    361.59125 
 1584000   -1.6794654   0.45641508   -1.2230503    1.0175265   0.30442818    2234.2075    361.90548 
 1585000   -1.6655054   0.45937087   -1.2061345    1.0969832   0.30639968    2234.2075    362.52125 
 1586000   -1.6777309   0.46386089     -1.21387    1.0334533   0.30939452    2234.2075    362.67356 
 1587000    -1.674244   0.44423342   -1.2300105    1.0442096   0.29630303    2234.2075    363.73279 
 1588000   -1.6664478   0.45722581    -1.209222     1.088564   0.30496893    2234.2075    364.56445 
 1589000    -1.683059   0.44693663   -1.2361223    1.0064651   0.29810606    2234.2075    365.46572 
 1590000   -1.6826085    0.4388664   -1.2437421   0.99819964   0.29272323    2234.2075    365.55912 
 1591000   -1.6711605   0.44759607   -1.2235644    1.0465785   0.29854591    2234.2075     366.0439 
 1592000   -1.6672139   0.45336195    -1.213852    1.0884714   0.30239175    2234.2075    366.54274 
 1593000   -1.6721173   0.44698585   -1.2251315    1.0512977   0.29813889    2234.2075    367.68005 
 1594000   -1.6721392   0.43968038   -1.2324588    1.0296235   0.29326615    2234.2075    368.94099 
 1595000   -1.6750402   0.43813726   -1.2369029     1.042175    0.2922369    2234.2075    369.93389 
 1596000   -1.6619453   0.44470269   -1.2172426    1.1014521   0.29661603    2234.2075    370.25239 
 1597000   -1.6774249   0.45946554   -1.2179594    1.0402095   0.30646283    2234.2075    371.54183 
 1598000   -1.6722734   0.45231024   -1.2199632    1.0655957   0.30169026    2234.2075    371.69137 
 1599000   -1.6840384    0.4349476   -1.2490908   0.99687573    0.2901094    2234.2075    371.99805 
 1600000    -1.674867   0.44375395   -1.2311131      1.03702   0.29598322    2234.2075    372.46428 
 1601000   -1.6728249   0.44887439   -1.2239505    1.0306931   0.29939855    2234.2075    373.48932 
 1602000   -1.6826661   0.45976234   -1.2229038    1.0094805   0.30666079    2234.2075    374.50106 
 1603000    -1.675457   0.45826706   -1.2171899    1.0577166   0.30566344    2234.2075    374.68323 
 1604000   -1.6806437    0.4401078   -1.2405359    1.0203288   0.29355125    2234.2075    374.95494 
 1605000   -1.6678347   0.43942232   -1.2284124    1.0783403   0.29309403    2234.2075    375.45174 
 1606000   -1.6748192   0.43877792   -1.2360413    1.0290033   0.29266422    2234.2075    376.11954 
 1607000   -1.6720594   0.45277985   -1.2192796    1.0598535   0.30200349    2234.2075    376.59474 
 1608000   -1.6691008   0.43715152   -1.2319493    1.0376433   0.29157941    2234.2075    376.83308 
 1609000   -1.6792154   0.44612842   -1.2330869     1.031461   0.29756699    2234.2075    377.11138 
 1610000   -1.6787573   0.44291243   -1.2358448    1.0296984   0.29542193    2234.2075    378.14392 
 1611000   -1.6696585   0.44951763   -1.2201409    1.0732647   0.29982759    2234.2075    378.27202 
 1612000   -1.6676088   0.45278308   -1.2148257    1.0712353   0.30200564    2234.2075     379.3192 
 1613000   -1.6796249   0.44942812   -1.2301968    1.0271379   0.29976789    2234.2075    379.69669 
 1614000   -1.6777812   0.45275665   -1.2250246    1.0359753   0.30198801    2234.2075     380.3975 
 1615000    -1.687375   0.45996754   -1.2274074    1.0101588   0.30679766    2234.2075    380.52287 
 1616000   -1.6744202   0.46299506   -1.2114251    1.0591766   0.30881702    2234.2075    381.59885 
 1617000   -1.6848855   0.45356722   -1.2313183   0.99716198   0.30252866    2234.2075    381.61015 
 1618000   -1.6735584   0.44264005   -1.2309183    1.0487809   0.29524025    2234.2075    382.18788 
 1619000    -1.671121   0.45853536   -1.2125857    1.0599229    0.3058424    2234.2075    382.90996 
 1620000   -1.6633796   0.44226433   -1.2211152    1.0992593   0.29498965    2234.2075    383.83503 
 1621000   -1.6802686   0.45478359    -1.225485    1.0198079   0.30333997    2234.2075    384.37986 
 1622000   -1.6736034   0.45532637    -1.218277    1.0423163   0.30370201    2234.2075    385.04994 
 1623000   -1.6663624   0.45663895   -1.2097235    1.0923203    0.3045775    2234.2075    386.21431 
 1624000    -1.672039    0.4509546   -1.2210844    1.0550485   0.30078604    2234.2075    386.76712 
 1625000   -1.6673264   0.46211515   -1.2052112     1.089636   0.30823011    2234.2075    387.44269 
 1626000   -1.6797773   0.43924903   -1.2405283    1.0007638   0.29297845    2234.2075    387.66191 
 1627000    -1.677008   0.43669045   -1.2403176    1.0207998   0.29127188    2234.2075    388.02398 
 1628000   -1.6741376   0.45026395   -1.2238737    1.0525217   0.30032538    2234.2075    388.99484 
 1629000   -1.6735435   0.44454425   -1.2289992    1.0434677   0.29651035    2234.2075    389.11306 
 1630000   -1.6715585   0.44909895   -1.2224595    1.0695041   0.29954833    2234.2075    389.13801 
 1631000   -1.6668795    0.4494147   -1.2174648    1.0764452   0.29975893    2234.2075     390.2681 
 1632000   -1.6759465   0.45666451   -1.2192819    1.0442374   0.30459454    2234.2075    390.65278 
 1633000   -1.6596039     0.447815   -1.2117889    1.1289721   0.29869194    2234.2075    391.34947 
 1634000   -1.6793638   0.44367543   -1.2356884    1.0165168   0.29593085    2234.2075     391.7304 
 1635000   -1.6752676    0.4560263   -1.2192413    1.0563479   0.30416886    2234.2075    392.29458 
 1636000   -1.6741398   0.45655843   -1.2175813    1.0523569   0.30452379    2234.2075    392.91601 
 1637000   -1.6755171   0.45411953   -1.2213976     1.039147   0.30289705    2234.2075     393.0622 
 1638000   -1.6736438    0.4354543   -1.2381895    1.0457835   0.29044737    2234.2075    393.74266 
 1639000   -1.6783835   0.43695998   -1.2414235    1.0251982   0.29145165    2234.2075    394.39384 
 1640000   -1.6801061   0.44604642   -1.2340597    1.0118178    0.2975123    2234.2075    395.45779 
 1641000   -1.6814657   0.45577544   -1.2256903    1.0150268   0.30400154    2234.2075    396.38786 
 1642000   -1.6786164   0.46196128   -1.2166551    1.0317051   0.30812748    2234.2075    397.42785 
 1643000   -1.6782799    0.4420529    -1.236227    1.0082906   0.29484862    2234.2075    398.64238 
 1644000   -1.6607977   0.44347131   -1.2173263    1.1178864    0.2957947    2234.2075    399.97007 
 1645000    -1.661557   0.45505313   -1.2065038    1.1126312   0.30351976    2234.2075    400.84912 
 1646000   -1.6724856   0.43986024   -1.2326253    1.0303382   0.29338612    2234.2075    401.18391 
 1647000   -1.6795272   0.44759433   -1.2319328    1.0188445   0.29854475    2234.2075    401.78959 
 1648000   -1.6807428   0.44478784    -1.235955    1.0112349   0.29667283    2234.2075    402.65107 
 1649000   -1.6786289   0.46510052   -1.2135284    1.0316908   0.31022135    2234.2075    403.67022 
 1650000   -1.6718944   0.44641492   -1.2254795    1.0415357   0.29775808    2234.2075    404.65464 
 1651000   -1.6687592    0.4341123   -1.2346469    1.0498852   0.28955226    2234.2075    405.35471 
 1652000    -1.678887   0.44416642   -1.2347206    1.0102371   0.29625834    2234.2075    405.44323 
 1653000    -1.672908   0.44856726   -1.2243408    1.0505721    0.2991937    2234.2075    404.80491 
 1654000   -1.6889957   0.43115501   -1.2578407   0.98590509   0.28757975    2234.2075    405.93058 
 1655000   -1.6785334   0.45375919   -1.2247743    1.0247727    0.3026567    2234.2075    406.72731 
 1656000   -1.6724346   0.44691617   -1.2255184     1.052883   0.29809242    2234.2075    407.02177 
 1657000   -1.6734695   0.43426396   -1.2392056    1.0427834   0.28965341    2234.2075    407.72925 
 1658000   -1.6860899   0.44829215   -1.2377977   0.99045859   0.29901019    2234.2075    408.23486 
 1659000   -1.6673152   0.45236047   -1.2149547    1.0799136   0.30172376    2234.2075     407.8213 
 1660000   -1.6694606   0.45421664    -1.215244    1.0835333   0.30296182    2234.2075    408.56424 
 1661000   -1.6744698   0.45870301   -1.2157668     1.067893   0.30595422    2234.2075    409.57933 
 1662000   -1.6854989   0.43581603   -1.2496829   0.98883077   0.29068864    2234.2075    409.41821 
 1663000   -1.6796656    0.4501757   -1.2294899    1.0176256   0.30026652    2234.2075     409.8622 
 1664000   -1.6793734   0.45333005   -1.2260434    1.0353599   0.30237047    2234.2075    410.64733 
 1665000     -1.66423   0.44430805   -1.2199219    1.0985477   0.29635281    2234.2075    410.75416 
 1666000   -1.6871914   0.44679456   -1.2403968    0.9862825    0.2980113    2234.2075    411.52293 
 1667000     -1.66503   0.44800399    -1.217026    1.0869266   0.29881799    2234.2075    411.88371 
 1668000   -1.6640396   0.45410186   -1.2099377    1.1259073   0.30288526    2234.2075    412.96453 
 1669000   -1.6731939   0.45416512   -1.2190288     1.051755   0.30292745    2234.2075    413.54099 
 1670000   -1.6699248   0.46068147   -1.2092433    1.0860406   0.30727385    2234.2075    414.26998 
 1671000   -1.6660197   0.45037188   -1.2156478    1.0846637   0.30039737    2234.2075    414.15865 
 1672000   -1.6754991   0.44703967   -1.2284595    1.0253991   0.29817479    2234.2075    415.06292 
 1673000   -1.6865217   0.46092109   -1.2256006   0.98299441   0.30743368    2234.2075    415.98558 
 1674000   -1.6764345   0.44171644    -1.234718    1.0328272   0.29462421    2234.2075    416.21292 
 1675000   -1.6770148   0.45002861   -1.2269862    1.0351726   0.30016841    2234.2075    417.69734 
 1676000   -1.6788399   0.46003481    -1.218805    1.0303603   0.30684253    2234.2075     418.4795 
 1677000   -1.6833318   0.46554958   -1.2177823    1.0061523   0.31052087    2234.2075    419.12347 
 1678000   -1.6672549   0.45503365   -1.2122213    1.0766929   0.30350676    2234.2075    419.46678 
 1679000   -1.6784684   0.44405723   -1.2344112    1.0403068   0.29618551    2234.2075    420.25601 
 1680000   -1.6694938   0.45847544   -1.2110183    1.0772134   0.30580243    2234.2075    420.68515 
 1681000   -1.6751176    0.4501866    -1.224931    1.0238868   0.30027379    2234.2075    421.15124 
 1682000   -1.6749453   0.44573979   -1.2292055     1.025628   0.29730777    2234.2075    421.01524 
 1683000   -1.6700001   0.44984697   -1.2201531    1.0825131   0.30004726    2234.2075    420.71373 
 1684000   -1.6661856    0.4478447   -1.2183409    1.0818536   0.29871175    2234.2075     420.9762 
 1685000   -1.6830796     0.451836   -1.2312436    1.0106866   0.30137394    2234.2075    421.96626 
 1686000   -1.6859744   0.44339773   -1.2425767   0.97870041   0.29574562    2234.2075      422.892 
 1687000   -1.6726973   0.45101005   -1.2216872    1.0469113   0.30082303    2234.2075    423.34458 
 1688000   -1.6746432   0.44410736   -1.2305358    1.0391823   0.29621895    2234.2075    423.64611 
 1689000   -1.6691837   0.45144219   -1.2177415    1.0681047   0.30111127    2234.2075    424.05937 
 1690000   -1.6619085   0.46606985   -1.1958387    1.1318587   0.31086789    2234.2075    425.06605 
 1691000   -1.6742202   0.44772497   -1.2264952    1.0314795   0.29863189    2234.2075    426.04706 
 1692000   -1.6767526   0.45206098   -1.2246916     1.042083     0.301524    2234.2075    427.50578 
 1693000   -1.6873127   0.44194343   -1.2453692   0.97013097   0.29477561    2234.2075    427.84578 
 1694000   -1.6725456   0.45121742   -1.2213281    1.0530847   0.30096134    2234.2075     428.5828 
 1695000   -1.6775298   0.46543529   -1.2120945    1.0243266   0.31044464    2234.2075    429.25549 
 1696000   -1.6757647   0.44634374    -1.229421    1.0540257   0.29771061    2234.2075    430.43463 
 1697000   -1.6642012   0.44099204   -1.2232092     1.088819   0.29414103    2234.2075    431.32224 
 1698000   -1.6839993   0.46445059   -1.2195487    1.0039711   0.30978785    2234.2075    431.99483 
 1699000   -1.6656033   0.45303689   -1.2125664    1.1004999   0.30217493    2234.2075    431.53481 
 1700000   -1.6788855   0.45065453    -1.228231    1.0365928    0.3005859    2234.2075     431.2992 
 1701000   -1.6708699   0.45098352   -1.2198864    1.0810758   0.30080533    2234.2075    431.96119 
 1702000   -1.6723782   0.42949078   -1.2428875    1.0343525   0.28646971    2234.2075    432.67559 
 1703000   -1.6725746   0.44508802   -1.2274866    1.0474313   0.29687305    2234.2075    433.13408 
 1704000    -1.663687   0.45802135   -1.2056657    1.1144953   0.30549956    2234.2075    434.52979 
 1705000   -1.6608061   0.46042475   -1.2003813    1.1038037   0.30710262    2234.2075    435.15097 
 1706000   -1.6757229   0.47243449   -1.2032884     1.051092    0.3151131    2234.2075    436.07398 
 1707000   -1.6777618   0.45318451   -1.2245773     1.038718   0.30227339    2234.2075    437.78994 
 1708000   -1.6851044   0.44469531    -1.240409   0.99959855   0.29661111    2234.2075    437.73923 
 1709000    -1.672988   0.45074362   -1.2222444     1.055621   0.30064532    2234.2075    438.61681 
 1710000   -1.6745384   0.45630318   -1.2182352    1.0693062   0.30435354    2234.2075    439.48297 
 1711000   -1.6681765   0.45382861   -1.2143479    1.0569831     0.302703    2234.2075    440.70914 
 1712000   -1.6826043   0.46215182   -1.2204525    1.0094976   0.30825457    2234.2075    441.59088 
 1713000   -1.6821357   0.44252224   -1.2396135   0.99869738   0.29516167    2234.2075    441.97054 
 1714000   -1.6765888    0.4416317   -1.2349571    1.0423976   0.29456769    2234.2075    442.35532 
 1715000   -1.6764087   0.46529979   -1.2111089    1.0459232   0.31035427    2234.2075    441.89887 
 1716000   -1.6776256   0.45368125   -1.2239443    1.0127513   0.30260472    2234.2075    441.69151 
 1717000   -1.6736331   0.44277677   -1.2308563    1.0410878   0.29533145    2234.2075    442.51735 
 1718000   -1.6782377   0.45343121   -1.2248065    1.0374437   0.30243794    2234.2075    443.08462 
 1719000   -1.6825514   0.44712629   -1.2354251   0.99263339   0.29823257    2234.2075     443.9854 
 1720000   -1.6763156   0.44008653    -1.236229    1.0324515   0.29353706    2234.2075    445.01066 
 1721000   -1.6680771   0.45708767   -1.2109894    1.0733103    0.3048768    2234.2075    445.68177 
 1722000   -1.6834599   0.45830815   -1.2251518    1.0255731   0.30569085    2234.2075    447.22472 
 1723000   -1.6806349   0.45078131   -1.2298535    1.0207708   0.30067046    2234.2075    447.49571 
 1724000   -1.6748094   0.44663707   -1.2281723    1.0419571   0.29790626    2234.2075    447.30579 
 1725000   -1.6790798   0.45633142   -1.2227483    1.0328541   0.30437237    2234.2075    447.66241 
 1726000   -1.6824238   0.45120689   -1.2312169   0.99445358   0.30095432    2234.2075    447.56795 
 1727000   -1.6662521   0.45024625   -1.2160058    1.1000379   0.30031358    2234.2075    447.58788 
 1728000   -1.6689796   0.46098162    -1.207998    1.0743912   0.30747406    2234.2075    446.98634 
 1729000   -1.6735282   0.45585881   -1.2176694    1.0464261   0.30405715    2234.2075    447.98054 
 1730000   -1.6668624   0.43990838   -1.2269541    1.0952739   0.29341823    2234.2075    448.99529 
 1731000   -1.6718471   0.43818972   -1.2336573     1.039825   0.29227189    2234.2075    449.52238 
 1732000   -1.6766904   0.44769019   -1.2290002    1.0343155   0.29860869    2234.2075    450.11179 
 1733000   -1.6729705   0.44979825   -1.2231722    1.0417636   0.30001476    2234.2075     450.1985 
 1734000   -1.6655511   0.44615235   -1.2193987    1.0960324   0.29758295    2234.2075    451.25014 
 1735000   -1.6833854   0.42459188   -1.2587935    1.0063863   0.28320215    2234.2075    452.06176 
 1736000   -1.6767195     0.450295   -1.2264245    1.0403913   0.30034609    2234.2075     453.1004 
 1737000   -1.6733854   0.45158371   -1.2218017    1.0684023   0.30120566    2234.2075    453.36167 
 1738000   -1.6723427   0.44641244   -1.2259302    1.0547758   0.29775643    2234.2075    454.68901 
 1739000   -1.6726238    0.4395707   -1.2330531     1.052488     0.293193    2234.2075    455.75699 
 1740000   -1.6754871    0.4563253   -1.2191618    1.0456782   0.30436829    2234.2075    456.80428 
 1741000   -1.6698253   0.45647009   -1.2133552    1.0745858   0.30446487    2234.2075    457.71246 
 1742000   -1.6780836   0.44746654   -1.2306171    1.0131033   0.29845952    2234.2075    457.91235 
 1743000    -1.677401    0.4365603   -1.2408407    1.0227518   0.29118507    2234.2075    458.66721 
 1744000     -1.66878    0.4440542   -1.2247258    1.0705584   0.29618349    2234.2075    459.44298 
 1745000   -1.6731171   0.45029559   -1.2228215    1.0605708   0.30034648    2234.2075    460.35562 
 1746000    -1.675153   0.44555545   -1.2295976    1.0053401   0.29718482    2234.2075    461.40592 
 1747000   -1.6783501   0.44145455   -1.2368956    0.9970997   0.29444952    2234.2075    462.55061 
 1748000   -1.6794409   0.45158073   -1.2278601    1.0270424   0.30120367    2234.2075     462.6434 
 1749000   -1.6821911   0.45028163   -1.2319095    1.0197067   0.30033717    2234.2075     463.3425 
 1750000   -1.6722604   0.45425142    -1.218009    1.0496535   0.30298502    2234.2075    463.56333 
 1751000   -1.6623264   0.45002386   -1.2123026    1.1302694   0.30016524    2234.2075    464.34551 
 1752000   -1.6737311   0.45143508    -1.222296    1.0468739   0.30110652    2234.2075    465.04762 
 1753000   -1.6753905   0.43907302   -1.2363174    1.0235267   0.29286105    2234.2075    465.14951 
 1754000   -1.6706314   0.44658731   -1.2240441    1.0658721   0.29787307    2234.2075     466.2377 
 1755000   -1.6732619   0.44581697   -1.2274449    1.0523257   0.29735925    2234.2075    466.39571 
 1756000   -1.6734394    0.4454724    -1.227967    1.0637066   0.29712943    2234.2075    466.87607 
 1757000   -1.6590999   0.46860682   -1.1904931    1.1493696   0.31256005    2234.2075    467.14617 
 1758000   -1.6732382    0.4506422    -1.222596    1.0413419   0.30057767    2234.2075    467.75788 
 1759000   -1.6748805   0.45081319   -1.2240673    1.0404503   0.30069172    2234.2075    468.85896 
 1760000    -1.678781   0.44722698    -1.231554    1.0373446   0.29829973    2234.2075    469.53634 
 1761000   -1.6611918    0.4610739   -1.2001179    1.1170347    0.3075356    2234.2075    469.35058 
 1762000      -1.6644    0.4422759   -1.2221241    1.0851821   0.29499737    2234.2075    470.26745 
 1763000   -1.6724626   0.44745302   -1.2250096    1.0649683    0.2984505    2234.2075    470.40624 
 1764000   -1.6654958   0.43862484    -1.226871    1.0803812   0.29256211    2234.2075      471.602 
 1765000   -1.6692055   0.44131101   -1.2278945    1.0585504   0.29435379    2234.2075    472.14849 
 1766000   -1.6634144   0.45883878   -1.2045756    1.1120256   0.30604478    2234.2075     472.3742 
 1767000   -1.6661405   0.44668656   -1.2194539    1.0812236   0.29793927    2234.2075    473.68732 
 1768000   -1.6748881   0.45512962   -1.2197585    1.0531508   0.30357078    2234.2075    474.79136 
 1769000   -1.6780038   0.44688933   -1.2311144    1.0107352   0.29807452    2234.2075    476.35052 
 1770000   -1.6643027   0.45434423   -1.2099584    1.0882784   0.30304692    2234.2075     476.9539 
 1771000   -1.6752802   0.45720032   -1.2180799    1.0365939   0.30495193    2234.2075    478.38112 
 1772000   -1.6961855   0.44955649    -1.246629    0.9296499   0.29985351    2234.2075    479.15793 
 1773000   -1.6638397   0.43736132   -1.2264784    1.1085161   0.29171935    2234.2075    480.28789 
 1774000   -1.6768951   0.43530518   -1.2415899    1.0295128    0.2903479    2234.2075    482.11453 
 1775000   -1.6774668   0.44976527   -1.2277016    1.0463215   0.29999276    2234.2075    482.72608 
 1776000   -1.6822417   0.44643192   -1.2358098   0.99650531   0.29776943    2234.2075    483.41261 
 1777000    -1.673026   0.45671856   -1.2163074     1.049829    0.3046306    2234.2075    484.03641 
 1778000   -1.6858452    0.4416856   -1.2441596   0.97652724   0.29460364    2234.2075    484.54728 
 1779000   -1.6791221   0.45086905    -1.228253   0.99800465   0.30072899    2234.2075    484.53955 
 1780000   -1.6861192   0.44932457   -1.2367946   0.97525957   0.29969882    2234.2075    485.07432 
 1781000   -1.6644406   0.45849896   -1.2059417    1.0970583   0.30581812    2234.2075    486.12491 
 1782000     -1.67614   0.46377301    -1.212367    1.0578722    0.3093359    2234.2075    486.04732 
 1783000   -1.6764276   0.45864987   -1.2177778    1.0412746   0.30591878    2234.2075    486.83386 
 1784000   -1.6828755    0.4463997   -1.2364758    1.0127794   0.29774793    2234.2075    487.06338 
 1785000   -1.6782734   0.45909787   -1.2191755    1.0465638   0.30621759    2234.2075    487.90424 
 1786000   -1.6778359   0.45749879   -1.2203371    1.0320278   0.30515101    2234.2075    489.40111 
 1787000    -1.673538   0.43664753   -1.2368904    1.0368976   0.29124325    2234.2075    490.00926 
 1788000   -1.6771725   0.45037577   -1.2267967    1.0402465   0.30039996    2234.2075    490.19265 
 1789000   -1.6677779   0.45449613   -1.2132818    1.0731036   0.30314824    2234.2075    490.12384 
 1790000   -1.6776527   0.46830246   -1.2093502    1.0422449   0.31235704    2234.2075    490.81226 
 1791000   -1.6743138    0.4485029   -1.2258109    1.0610441   0.29915077    2234.2075    491.02162 
 1792000   -1.6818608   0.44966288    -1.232198    1.0061219   0.29992447    2234.2075    490.46031 
 1793000   -1.6657388   0.44755017   -1.2181887    1.0986394   0.29851529    2234.2075    491.28972 
 1794000   -1.6523497   0.46022129   -1.1921284    1.1739547   0.30696691    2234.2075    491.99734 
 1795000   -1.6770296   0.45201974   -1.2250098    1.0447127   0.30149649    2234.2075     493.4357 
 1796000   -1.6772685   0.44987154   -1.2273969    1.0367191   0.30006365    2234.2075    493.64001 
 1797000   -1.6766211    0.4574624   -1.2191587    1.0470078   0.30512674    2234.2075    494.07763 
 1798000   -1.6780693   0.44195256   -1.2361167    1.0130605    0.2947817    2234.2075    494.82407 
 1799000   -1.6842486   0.44958104   -1.2346676      0.99546   0.29986988    2234.2075    495.49161 
 1800000   -1.6874103   0.45380124   -1.2336091   0.97599041   0.30268475    2234.2075    495.90289 
 1801000   -1.6663791    0.4525162   -1.2138629    1.0894963   0.30182763    2234.2075    497.25199 
 1802000   -1.6612172   0.45425265   -1.2069645    1.1187333   0.30298584    2234.2075    497.94992 
 1803000   -1.6814227   0.44577208   -1.2356506    1.0051727   0.29732931    2234.2075     498.2734 
 1804000   -1.6862307   0.45436312   -1.2318676   0.96619734   0.30305952    2234.2075    498.83128 
 1805000   -1.6605418   0.46274227   -1.1977995      1.12655    0.3086484    2234.2075    499.56254 
 1806000    -1.681216   0.46779719   -1.2134188    1.0172801   0.31202003    2234.2075    500.53985 
 1807000   -1.6681827   0.45303268     -1.21515    1.0955488   0.30217212    2234.2075    501.52944 
 1808000   -1.6822766   0.44392076   -1.2383559    1.0054158   0.29609448    2234.2075    501.46212 
 1809000   -1.6743752   0.46493587   -1.2094393     1.059823   0.31011153    2234.2075    501.79988 
 1810000   -1.6768411   0.45553437   -1.2213068    1.0426718   0.30384074    2234.2075    502.81789 
 1811000   -1.6830766   0.43466897   -1.2484076   0.99078349   0.28992355    2234.2075    503.26861 
 1812000   -1.6706057   0.43684054   -1.2337652    1.0416725   0.29137199    2234.2075    504.39286 
 1813000   -1.6748038   0.43396231   -1.2408415    1.0413365   0.28945221    2234.2075    505.53612 
 1814000   -1.6815456   0.44972787   -1.2318178    1.0142636   0.29996782    2234.2075    505.62739 
 1815000   -1.6566434    0.4560754    -1.200568    1.1613988   0.30420161    2234.2075    506.04283 
 1816000   -1.6722043   0.46551144   -1.2066928    1.0771839   0.31049544    2234.2075    506.49631 
 1817000   -1.6845983   0.44282887   -1.2417694    1.0011917    0.2953662    2234.2075    506.09917 
 1818000    -1.669717   0.42192419   -1.2477928     1.056357    0.2814228    2234.2075    506.91431 
 1819000   -1.6752107   0.44997843   -1.2252323    1.0527569   0.30013494    2234.2075    507.46206 
 1820000   -1.6645581   0.44910501   -1.2154531    1.0869368   0.29955237    2234.2075    507.22147 
 1821000   -1.6734057   0.44757045   -1.2258352     1.043448   0.29852882    2234.2075    508.06111 
 1822000   -1.6882067   0.46334726   -1.2248595   0.97676582   0.30905193    2234.2075    508.82528 
 1823000   -1.6809814   0.44231601   -1.2386654    1.0035681   0.29502412    2234.2075    508.78768 
 1824000   -1.6732772    0.4431518   -1.2301254    1.0476376   0.29558159    2234.2075    509.29592 
 1825000   -1.6683109   0.45516358   -1.2131473    1.0731106   0.30359343    2234.2075    509.88951 
 1826000   -1.6787545   0.44798726   -1.2307673    1.0143505   0.29880683    2234.2075    509.93416 
 1827000   -1.6779687   0.45973023   -1.2182385    1.0207301   0.30663938    2234.2075    510.32906 
 1828000    -1.676515   0.45004313   -1.2264719    1.0479848   0.30017809    2234.2075    511.29197 
 1829000   -1.6703308   0.46289119   -1.2074396    1.0870776   0.30874773    2234.2075    512.11271 
 1830000   -1.6696547   0.44772762   -1.2219271    1.0886459   0.29863366    2234.2075    512.71251 
 1831000   -1.6696927   0.44076603   -1.2289267    1.0709424   0.29399028    2234.2075    513.91457 
 1832000   -1.6874896   0.43624364    -1.251246    0.9779016   0.29097386    2234.2075    515.30049 
 1833000   -1.6821138   0.47116776    -1.210946     1.012985   0.31426819    2234.2075    514.87619 
 1834000   -1.6720553   0.44499517   -1.2270601    1.0593024   0.29681111    2234.2075    515.21421 
 1835000   -1.6703127   0.46167768   -1.2086351    1.0655156   0.30793833    2234.2075    516.26352 
 1836000   -1.6796875   0.45329503   -1.2263925    1.0199177   0.30234711    2234.2075    516.91284 
 1837000    -1.664075   0.45857843   -1.2054966    1.1069882   0.30587113    2234.2075    517.17338 
 1838000   -1.6810457   0.44470129   -1.2363444    1.0239074   0.29661509    2234.2075    518.13693 
 1839000     -1.68036   0.44125586   -1.2391042    1.0128263     0.294317    2234.2075     519.0827 
 1840000   -1.6692533   0.45484391   -1.2144094    1.0701442   0.30338021    2234.2075    519.56507 
 1841000   -1.6603726   0.42948848   -1.2308841    1.1163915   0.28646818    2234.2075    519.29854 
 1842000    -1.674033    0.4524061   -1.2216269    1.0360054   0.30175419    2234.2075    520.02265 
 1843000   -1.6722979   0.44445775   -1.2278402    1.0633804   0.29645266    2234.2075     520.4139 
 1844000   -1.6690776   0.46564827   -1.2034293    1.0727362    0.3105867    2234.2075    520.90891 
 1845000   -1.6839024   0.46436975   -1.2195326    1.0101016   0.30973393    2234.2075    521.38722 
 1846000   -1.6763729   0.46220007   -1.2141728    1.0399154   0.30828675    2234.2075    521.97019 
 1847000   -1.6805748   0.45636866   -1.2242062    1.0221843   0.30439721    2234.2075    523.44449 
 1848000   -1.6863613   0.44303575   -1.2433255   0.96967039   0.29550418    2234.2075    524.79084 
 1849000   -1.6701863   0.45192847   -1.2182579    1.0682518   0.30143561    2234.2075    525.42184 
 1850000   -1.6762107   0.46312926   -1.2130815    1.0497547   0.30890653    2234.2075    525.46473 
 1851000   -1.6727504   0.43568127   -1.2370691    1.0442589   0.29059876    2234.2075    525.99658 
 1852000   -1.6680782   0.46259721    -1.205481    1.0914726   0.30855165    2234.2075     526.0621 
 1853000   -1.6734431   0.44926094   -1.2241821    1.0455098   0.29965637    2234.2075    526.85987 
 1854000   -1.6580118   0.45030415   -1.2077076    1.1269043    0.3003522    2234.2075    527.19836 
 1855000   -1.6746492    0.4393247   -1.2353245    1.0310984   0.29302892    2234.2075    527.37667 
 1856000   -1.6782082   0.45657211   -1.2216361    1.0467025   0.30453292    2234.2075    527.47339 
 1857000   -1.6752305   0.44863392   -1.2265966    1.0428845   0.29923816    2234.2075    527.70638 
 1858000   -1.6770441   0.45129656   -1.2257475    1.0442411   0.30101413    2234.2075    529.01334 
 1859000   -1.6826162   0.45041799   -1.2321982     1.024264   0.30042813    2234.2075    530.03931 
 1860000   -1.6774529    0.4478558   -1.2295971    1.0373236   0.29871915    2234.2075     529.5994 
 1861000     -1.67769   0.44487355   -1.2328164    1.0164453      0.29673    2234.2075    531.56072 
 1862000   -1.6850147   0.44790972   -1.2371049    1.0012649   0.29875511    2234.2075    531.66375 
 1863000    -1.679427   0.46220128   -1.2172257    1.0227968   0.30828757    2234.2075    532.93747 
 1864000   -1.6610648   0.44163061   -1.2194342    1.1149536   0.29456696    2234.2075    532.68428 
 1865000   -1.6708094    0.4418224    -1.228987    1.0537239   0.29469488    2234.2075    533.21805 
 1866000    -1.683241   0.44239311   -1.2408479   0.98873796   0.29507554    2234.2075    534.51683 
 1867000   -1.6751057   0.44342467    -1.231681    1.0373246    0.2957636    2234.2075    535.15463 
 1868000    -1.686161   0.44770433   -1.2384567   0.97408838   0.29861812    2234.2075    535.99348 
 1869000   -1.6750803   0.44628497   -1.2287953    1.0513913   0.29767141    2234.2075     536.6871 
 1870000    -1.675096   0.43247127   -1.2426247    1.0183483   0.28845769    2234.2075    537.01463 
 1871000   -1.6700554   0.45854814   -1.2115073     1.049677   0.30585092    2234.2075    537.23567 
 1872000   -1.6646021   0.44106984   -1.2235323    1.0687486   0.29419293    2234.2075    537.71431 
 1873000   -1.6727253    0.4490085   -1.2237168    1.0457247     0.299488    2234.2075    538.12588 
 1874000   -1.6706882   0.47134894   -1.1993392    1.0742111   0.31438904    2234.2075    539.39713 
 1875000   -1.6770046   0.44664328   -1.2303613    1.0356257    0.2979104    2234.2075     539.9675 
 1876000   -1.6892399   0.45034729   -1.2388926   0.97475611   0.30038097    2234.2075    539.93059 
 1877000   -1.6694449   0.45162786    -1.217817    1.0706891   0.30123511    2234.2075    541.07281 
 1878000   -1.6784183   0.45733005   -1.2210883     1.021386   0.30503846    2234.2075    540.81482 
 1879000   -1.6843501   0.44775447   -1.2365956    1.0100815   0.29865156    2234.2075    541.51739 
 1880000   -1.6705437   0.45655852   -1.2139851    1.0764602   0.30452385    2234.2075    542.02247 
 1881000   -1.6723657   0.44874968    -1.223616    1.0534672   0.29931537    2234.2075    542.29607 
 1882000   -1.6766208   0.45359177    -1.223029    1.0506464   0.30254503    2234.2075    543.00953 
 1883000   -1.6804678   0.45854493   -1.2219229    1.0239181   0.30584878    2234.2075    543.30143 
 1884000   -1.6724048   0.44931031   -1.2230945    1.0419235   0.29968931    2234.2075    543.38696 
 1885000   -1.6768274   0.44059413   -1.2362333     1.024137   0.29387563    2234.2075    544.19634 
 1886000   -1.6706537   0.43299458   -1.2376592    1.0584368   0.28880674    2234.2075    545.49477 
 1887000   -1.6565052   0.43871461   -1.2177906    1.1398612   0.29262199    2234.2075    545.90064 
 1888000   -1.6444579   0.46139469   -1.1830632    1.2138927   0.30774957    2234.2075    546.75855 
 1889000   -1.6865889    0.4457306   -1.2408583   0.98725762   0.29730164    2234.2075    547.43156 
 1890000   -1.6621661    0.4464321    -1.215734    1.1194477   0.29776955    2234.2075    548.63042 
 1891000   -1.6662341   0.45057355   -1.2156605    1.0788661   0.30053188    2234.2075    549.68409 
 1892000   -1.6647375   0.45041082   -1.2143267    1.0724333   0.30042334    2234.2075    550.46826 
 1893000   -1.6722718   0.44308925   -1.2291826    1.0300725   0.29553987    2234.2075    550.68128 
 1894000   -1.6758702   0.44517593   -1.2306942    1.0309277   0.29693168    2234.2075    551.09983 
 1895000   -1.6761964   0.46279401   -1.2134024    1.0509843   0.30868292    2234.2075    552.19539 
 1896000   -1.6733344   0.44611336    -1.227221    1.0524363   0.29755695    2234.2075    552.78671 
 1897000   -1.6728614   0.45223081   -1.2206306    1.0583886   0.30163727    2234.2075    553.65365 
 1898000   -1.6673219   0.46466201   -1.2026599    1.0891843   0.30992886    2234.2075    554.22242 
 1899000   -1.6720259   0.45311509   -1.2189108    1.0468387   0.30222709    2234.2075    555.96633 
 1900000   -1.6734681   0.44473437   -1.2287337    1.0463507   0.29663716    2234.2075    556.25726 
 1901000   -1.6781618   0.44355929   -1.2346025    1.0255272   0.29585339    2234.2075    556.51678 
 1902000    -1.674133    0.4492446   -1.2248884    1.0480497   0.29964548    2234.2075    556.20264 
 1903000   -1.6865933   0.45317393   -1.2334193   0.96771952   0.30226633    2234.2075    556.27739 
 1904000   -1.6744985   0.45331574   -1.2211828    1.0481229   0.30236092    2234.2075    556.44844 
 1905000   -1.6729415   0.44901936   -1.2239222      1.05329   0.29949524    2234.2075    557.49872 
 1906000    -1.668727   0.46227391   -1.2064531    1.0988475   0.30833601    2234.2075    557.87744 
 1907000   -1.6722919   0.44904299   -1.2232489    1.0552072     0.299511    2234.2075    558.36539 
 1908000   -1.6777029    0.4435944   -1.2341085    1.0226196    0.2958768    2234.2075    558.73269 
 1909000   -1.6764985   0.44250229   -1.2339962    1.0260327   0.29514837    2234.2075     560.2141 
 1910000   -1.6770741   0.45257806    -1.224496    1.0254848   0.30186889    2234.2075     560.4068 
 1911000   -1.6753421   0.45925963   -1.2160825    1.0442228   0.30632548    2234.2075    561.02996 
 1912000   -1.6689904   0.44230391   -1.2266865     1.075874   0.29501605    2234.2075    561.80332 
 1913000   -1.6802068   0.44198084   -1.2382259    1.0262875   0.29480056    2234.2075     562.3882 
 1914000   -1.6824123   0.46766203   -1.2147503    1.0216689   0.31192987    2234.2075    562.33208 
 1915000   -1.6690893    0.4638839   -1.2052054    1.0901396   0.30940987    2234.2075    562.37783 
 1916000   -1.6786833   0.46613252   -1.2125507     1.040179   0.31090969    2234.2075    563.03739 
 1917000   -1.6704077   0.44760872    -1.222799    1.0517376   0.29855435    2234.2075    563.47162 
 1918000   -1.6755213   0.42996167   -1.2455596    1.0125574   0.28678379    2234.2075    563.43913 
 1919000    -1.665126   0.43751259   -1.2276134    1.0857439   0.29182025    2234.2075    563.22426 
 1920000   -1.6635916   0.44565658    -1.217935    1.1101517   0.29725227    2234.2075    564.96667 
 1921000   -1.6884669   0.45321651   -1.2352504    0.9859907   0.30229474    2234.2075    565.30037 
 1922000   -1.6740621   0.45094928   -1.2231128    1.0343325    0.3007825    2234.2075    566.01894 
 1923000   -1.6809173   0.46935441   -1.2115629    1.0254316   0.31305869    2234.2075     567.2563 
 1924000    -1.663117   0.45574931   -1.2073677    1.1130419   0.30398411    2234.2075    567.87326 
 1925000   -1.6713218   0.45554683    -1.215775    1.0710782   0.30384905    2234.2075    568.65918 
 1926000    -1.677856   0.44081088   -1.2370451    1.0241345    0.2940202    2234.2075    568.96864 
 1927000     -1.67196   0.45295249   -1.2190076    1.0647826   0.30211863    2234.2075    570.15488 
 1928000   -1.6829314   0.45727089   -1.2256606    1.0062144     0.304999    2234.2075    570.42161 
 1929000   -1.6762867   0.45508383   -1.2212029    1.0330901   0.30354023    2234.2075    569.63129 
 1930000   -1.6676688   0.45594403   -1.2117248    1.0812449   0.30411399    2234.2075    569.61817 
 1931000   -1.6806386   0.44572409   -1.2349146    1.0337173    0.2972973    2234.2075    570.80106 
 1932000   -1.6869426   0.44031041   -1.2466322    0.9874799   0.29368638    2234.2075    571.32201 
 1933000   -1.6795932   0.44828735   -1.2313059   0.98930297   0.29900699    2234.2075    571.98866 
 1934000   -1.6780108   0.43957162   -1.2384392    1.0355129   0.29319361    2234.2075    571.63406 
 1935000   -1.6684412   0.44659457   -1.2218466    1.0801913   0.29787791    2234.2075      571.645 
 1936000   -1.6643959   0.45842894    -1.205967    1.1061478   0.30577142    2234.2075    571.88472 
 1937000    -1.673457   0.44151437   -1.2319426    1.0522788   0.29448942    2234.2075    572.65652 
 1938000   -1.6775732   0.45517508   -1.2223982    1.0252664    0.3036011    2234.2075    573.21702 
 1939000   -1.6788018   0.46009684    -1.218705    1.0325377    0.3068839    2234.2075    573.97095 
 1940000   -1.6789242   0.44149247   -1.2374317    1.0172023   0.29447482    2234.2075    575.65821 
 1941000   -1.6790687   0.43975267    -1.239316    1.0098434   0.29331437    2234.2075    576.94436 
 1942000   -1.6632686   0.45053631   -1.2127323    1.0953891   0.30050705    2234.2075     577.6354 
 1943000   -1.6820127   0.45220978   -1.2298029   0.99951577   0.30162325    2234.2075    577.70376 
 1944000   -1.6707403   0.44981602   -1.2209243     1.054961   0.30002662    2234.2075    578.09769 
 1945000   -1.6725479   0.45061702   -1.2219308    1.0616941   0.30056088    2234.2075    578.17964 
 1946000   -1.6717986   0.44769455   -1.2241041    1.0489641    0.2986116    2234.2075     578.1094 
 1947000   -1.6665394   0.43968389   -1.2268555    1.0833924    0.2932685    2234.2075    578.46941 
 1948000   -1.6610266   0.45499284   -1.2060337    1.1005389   0.30347954    2234.2075    578.17467 
 1949000   -1.6779719   0.45811687   -1.2198551    1.0298869   0.30556327    2234.2075    578.65183 
 1950000   -1.6675448   0.44385339   -1.2236914    1.0827362   0.29604955    2234.2075    580.01683 
 1951000   -1.6760581   0.44360434   -1.2324538    1.0275538   0.29588343    2234.2075    580.70682 
 1952000   -1.6806483   0.44652125   -1.2341271    1.0086738   0.29782901    2234.2075    580.99358 
 1953000   -1.6769634   0.44425947   -1.2327039    1.0355054    0.2963204    2234.2075    581.82294 
 1954000   -1.6831809   0.44520994    -1.237971   0.99859892   0.29695437    2234.2075    582.64962 
 1955000   -1.6809172   0.44355401   -1.2373632    1.0252181   0.29584987    2234.2075    582.47634 
 1956000   -1.6753918    0.4509855   -1.2244062    1.0502464   0.30080666    2234.2075    582.98882 
 1957000   -1.6819326   0.46284598   -1.2190866    1.0254467   0.30871758    2234.2075    583.16976 
 1958000   -1.6742749   0.44975577   -1.2245191    1.0458606   0.29998643    2234.2075    584.25314 
 1959000    -1.685709   0.45273814   -1.2329708    0.9944187   0.30197566    2234.2075    583.88339 
 1960000   -1.6673908   0.45695577    -1.210435    1.0876755   0.30478882    2234.2075    585.06685 
 1961000   -1.6782872   0.45539882   -1.2228884    1.0265837   0.30375033    2234.2075    585.94182 
 1962000   -1.6762514   0.45246511   -1.2237863    1.0470167   0.30179355    2234.2075    587.05746 
 1963000   -1.6629659    0.4402414   -1.2227245    1.0935579   0.29364036    2234.2075    588.07041 
 1964000   -1.6827239   0.45970588    -1.223018   0.98697211   0.30662313    2234.2075     588.1049 
 1965000   -1.6815955   0.43833214   -1.2432634    1.0136611   0.29236688    2234.2075    588.49277 
 1966000     -1.67066   0.44816113   -1.2224989    1.0394544    0.2989228    2234.2075     589.3106 
 1967000   -1.6749662   0.44621571   -1.2287505    1.0397523   0.29762521    2234.2075    590.50717 
 1968000    -1.675461   0.45274993    -1.222711    1.0624443   0.30198353    2234.2075    591.66262 
 1969000   -1.6869258   0.45073933   -1.2361865   0.97924395   0.30064246    2234.2075    592.49235 
 1970000    -1.681683    0.4698145   -1.2118685    1.0308941   0.31336557    2234.2075    593.35619 
 1971000   -1.6782865   0.44996845    -1.228318    1.0279811   0.30012828    2234.2075    593.68325 
 1972000    -1.664564   0.46670797    -1.197856    1.1181195   0.31129352    2234.2075    594.84909 
 1973000   -1.6846011   0.44759897   -1.2370021   0.97781514   0.29854784    2234.2075      595.428 
 1974000   -1.6655928   0.45904457   -1.2065482    1.1005525   0.30618204    2234.2075    596.49916 
 1975000   -1.6837257   0.44613989   -1.2375858   0.99762443   0.29757464    2234.2075    596.82346 
 1976000   -1.6700975   0.45656343    -1.213534    1.0831005   0.30452713    2234.2075    598.30714 
 1977000   -1.6854737    0.4451709   -1.2403028   0.96989019   0.29692833    2234.2075    599.23567 
 1978000   -1.6838119   0.44679762   -1.2370143    1.0182077   0.29801335    2234.2075    600.51657 
 1979000   -1.6714051   0.44967011    -1.221735    1.0807118   0.29992929    2234.2075    601.84284 
 1980000   -1.6789917   0.44480231   -1.2341894    1.0076688   0.29668248    2234.2075    602.61408 
 1981000   -1.6587896   0.44366784   -1.2151218    1.1251805   0.29592579    2234.2075    602.75191 
 1982000   -1.6672628   0.44646536   -1.2207974    1.0971338   0.29779173    2234.2075    603.01491 
 1983000   -1.6854231   0.45555778   -1.2298653   0.99536406   0.30385636    2234.2075      604.325 
 1984000   -1.6772612   0.44947701   -1.2277842    1.0154689    0.2998005    2234.2075    605.84322 
 1985000   -1.6696977   0.44788899   -1.2218087    1.0855848   0.29874129    2234.2075    606.61843 
 1986000   -1.6718663   0.45140679   -1.2204595    1.0678583   0.30108766    2234.2075    607.62443 
 1987000    -1.678808   0.45155543   -1.2272526    1.0050747   0.30118679    2234.2075    607.62877 
 1988000   -1.6806365   0.44898217   -1.2316543    1.0303371   0.29947044    2234.2075     608.6896 
 1989000   -1.6759699    0.4266615   -1.2493084    1.0265937   0.28458258    2234.2075    608.23881 
 1990000   -1.6704393   0.44562367   -1.2248156    1.0617009   0.29723032    2234.2075    608.48978 
 1991000   -1.6586856   0.43557899   -1.2231066    1.0965665   0.29053053    2234.2075    609.46518 
 1992000   -1.6828445   0.44624716   -1.2365974    1.0019676   0.29764619    2234.2075    609.87282 
 1993000   -1.6759547   0.46839507   -1.2075597    1.0553322   0.31241881    2234.2075    610.11866 
 1994000   -1.6873907   0.44498309   -1.2424076   0.98290266   0.29680306    2234.2075    610.53296 
 1995000   -1.6831628   0.45665336   -1.2265094    1.0143733   0.30458711    2234.2075    610.88284 
 1996000   -1.6716359   0.46314285    -1.208493    1.0693787   0.30891559    2234.2075    610.89386 
 1997000   -1.6663749   0.45026029   -1.2161146    1.1030036   0.30032294    2234.2075    611.80443 
 1998000   -1.6818218   0.45158162   -1.2302402    1.0087592   0.30120427    2234.2075    612.79003 
 1999000   -1.6906421   0.44778265   -1.2428594   0.96870284   0.29867036    2234.2075    613.42464 
 2000000   -1.6720472   0.45578004   -1.2162672    1.0634504    0.3040046    2234.2075    614.29011 
Loop time of 4511.69 on 1 procs for 1000000 steps with 2010 atoms

Performance: 95751.278 tau/day, 221.646 timesteps/s
93.1% CPU use with 1 MPI tasks x 1 OpenMP threads

MPI task timing breakdown:
Section |  min time  |  avg time  |  max time  |%varavg| %total
---------------------------------------------------------------
Pair    | 3771.2     | 3771.2     | 3771.2     |   0.0 | 83.59
Bond    | 1.789      | 1.789      | 1.789      |   0.0 |  0.04
Neigh   | 489.13     | 489.13     | 489.13     |   0.0 | 10.84
Comm    | 63.952     | 63.952     | 63.952     |   0.0 |  1.42
Output  | 103.07     | 103.07     | 103.07     |   0.0 |  2.28
Modify  | 62.229     | 62.229     | 62.229     |   0.0 |  1.38
Other   |            | 20.31      |            |       |  0.45

Nlocal:    2010 ave 2010 max 2010 min
Histogram: 1 0 0 0 0 0 0 0 0 0
Nghost:    5966 ave 5966 max 5966 min
Histogram: 1 0 0 0 0 0 0 0 0 0
Neighs:    205908 ave 205908 max 205908 min
Histogram: 1 0 0 0 0 0 0 0 0 0

Total # of neighbors = 205908
Ave neighs/atom = 102.442
Ave special neighs/atom = 0.0238806
Neighbor list builds = 50000
Dangerous builds not checked

unfix        nvtid1
undump       dumpnvt1
unfix        rdfnvt1
uncompute    rdfnvt1
uncompute    msdnvt1

# There is no need to run two times for calculation of RDF of different pairs. It can be done together.
	
Total wall time: 2:31:56
